  Job Started  at 23:29.20  5th August     2022

  Number of CPUs =     1

  Total number of configurations input =      1

*  Input for Configuration =   1                                               *

  Formula = Si3O6

  Number of irreducible atoms/shells =      15

  Total number atoms/shells =      15

  Dimensionality = 3               :  Bulk

  Cartesian lattice vectors (Angstroms) :

        4.833380    0.000000    0.000000
       -2.416690    4.185830    0.000000
        0.000000    0.000000    5.345010

  Cell parameters (Angstroms/Degrees):

  a =       4.8334    alpha =  90.0000
  b =       4.8334    beta  =  90.0000
  c =       5.3450    gamma = 120.0000

  Initial cell volume =         108.138673 Angs**3

  Temperature of configuration =  0.200E+04 K

  Pressure of configuration =         0.000 GPa

  Fractional coordinates of asymmetric unit :

   No.  Atomic       x           y          z         Charge      Occupancy
        Label      (Frac)      (Frac)     (Frac)        (e)         (Frac)
      1 Si    c    0.463746 *  0.000000 *  0.333333 *   4.00000    1.000000
      2 Si    c    0.000000 *  0.463746 *  0.666667 *   4.00000    1.000000
      3 Si    c    0.536254 *  0.536254 *  0.000000 *   4.00000    1.000000
      4 O     c    0.408155 *  0.278819 *  0.224995 *   0.86902    1.000000
      5 O     c    0.721181 *  0.129335 *  0.558329 *   0.86902    1.000000
      6 O     c    0.870665 *  0.591845 *  0.891662 *   0.86902    1.000000
      7 O     c    0.129335 *  0.721181 *  0.441671 *   0.86902    1.000000
      8 O     c    0.591845 *  0.870665 *  0.108338 *   0.86902    1.000000
      9 O     c    0.278819 *  0.408155 *  0.775005 *   0.86902    1.000000
     10 O     s    0.428076 *  0.276220 *  0.213085 *  -2.86902    1.000000
     11 O     s    0.723780 *  0.151855 *  0.546418 *  -2.86902    1.000000
     12 O     s    0.848145 *  0.571924 *  0.879751 *  -2.86902    1.000000
     13 O     s    0.151855 *  0.723780 *  0.453582 *  -2.86902    1.000000
     14 O     s    0.571924 *  0.848145 *  0.120249 *  -2.86902    1.000000
     15 O     s    0.276220 *  0.428076 *  0.786915 *  -2.86902    1.000000

*  General input information                                                   *

  Species output for all configurations :

  Species    Type    Atomic    Atomic    Charge       Radii (Angs)     Library
                     Number     Mass       (e)     Cova   Ionic  VDW   Symbol
    Si       Core       14      28.09   4.000000   1.200  0.000  2.100
    O        Core        8      14.40   0.869020   0.730  0.000  1.360
    O        Shell       8       1.60  -2.869020   0.730  0.000  1.360

  Lattice summation method               =    Ewald          (3-D)
                                         =    Parry          (2-D)
                                         =    Saunders et al (1-D)
  Accuracy factor for lattice sums       =   12.000

  Analytic derivatives to be used

  Time limit = Infinity

  Maximum range for interatomic potentials =        12.000000 Angstroms

  Taper potentials to zero over   1.0000 Angstroms using polynomial

  General interatomic potentials :

Atom  Types   Potential      Parameter       Value         Units   Cutoffs(Ang)
  1     2                                                            Min /  Max
Si   c O    s Buckingham    Buckingham A     1283.9070    eV        0.000 12.000
                            Buckingham rho  0.32052000    Ang
                            Buckingham C     10.661580    eV*Ang^6
O    s O    s Buckingham    Buckingham A     22764.000    eV        0.000 12.000
                            Buckingham rho  0.14900000    Ang
                            Buckingham C     27.879000    eV*Ang^6
O    c O    s Spring (c-s)  Spring k 2       74.920000    eV*Ang^-2 0.000  0.800
                            Spring k 4       0.0000000    eV*Ang^-4

  General Three-body potentials :

  Atoms       Potential      Parameter       Value         Units   Cutoffs(Ang)
  1 / 2 / 3                                                          Min /  Max
Si    core    Harmonic      Three-body cnst  2.0972400    eV*rad^-2 0.000  1.800
O     shel                  Three-body angl  109.47000    degrees   0.000  1.800
O     shel                  Three-body k4    0.0000000    eV*rad^-4 0.000  3.500
                            Three-body k3    0.0000000    eV*rad^-3

*  Output for configuration   1                                                *

  Components of energy :

  Interatomic potentials     =         106.71938202 eV
  Three-body potentials      =           0.04837195 eV
  Monopole - monopole (real) =        -108.09380331 eV
  Monopole - monopole (recip)=        -384.78487081 eV
  Monopole - monopole (total)=        -492.87867412 eV
  Total lattice energy       =        -386.11092015 eV
  Total lattice energy       =          -37253.8015 kJ/(mole unit cells)

  MSI Archive (version 3) open for Movie as quartz-npt_3D.arc

  Equations of motion will be integrated using the leapfrog Verlet algorithm.

  Core-shell wave numbers:

    O   :    3761.37 cm**(-1)

  Above wave numbers must be larger than the vibrational modes for this system.

*  Molecular Dynamics                                                          *

  Isothermal/baric ensemble (NPT) to be used

  Friction for temperature bath =           0.050000
  Friction for pressure    bath =           0.050000

  No. of mobile ions        =                  9

  No. of degrees of freedom =                 24

  Time step                 =           0.000100 ps
  Equilibration time        =           0.500000 ps
  Production time           =           0.200000 ps
  Scaling time              =           0.500000 ps
  Scaling frequency         =           0.000100 ps
  Sampling frequency        =           0.010000 ps
  Write frequency           =           0.010000 ps
  TD-Force start time       =           0.000000 ps
  TD-Field start time       =           0.000000 ps

  Molecular dynamics equilibration :

  ** Time :            0.01000 ps :
     Properties:                   Instantaneous       Averaged
       Kinetic energy    (eV) =       2.051210          2.051210
       Potential energy  (eV) =    -383.593239       -383.593239
       Total energy      (eV) =    -381.542029       -381.542029
       Temperature       (K)  =    1983.606653       1983.606653
       C/S temperature   (K)  =       0.501523          0.501523
       Pressure         (GPa) =       2.766335          2.766335
       Cell parameter : a (A) =       4.834662          4.834662
       Cell parameter : b (A) =       4.833123          4.833123
       Cell parameter : c (A) =       5.348764          5.348764
       Cell angle : alpha (o) =      90.001847         90.001847
       Cell angle : beta  (o) =      90.023070         90.023070
       Cell angle : gamma (o) =     119.983746        119.983746
       Cell volume :   (A**3) =     108.255302        108.255302
  ** Time :            0.02000 ps :
     Properties:                   Instantaneous       Averaged
       Kinetic energy    (eV) =       2.060497          2.055853
       Potential energy  (eV) =    -382.904426       -383.248833
       Total energy      (eV) =    -380.843929       -381.192979
       Temperature       (K)  =    1992.587120       1988.096887
       C/S temperature   (K)  =       0.636209          0.568866
       Pressure         (GPa) =      -1.480491          0.642753
       Cell parameter : a (A) =       4.838912          4.836787
       Cell parameter : b (A) =       4.830667          4.831895
       Cell parameter : c (A) =       5.348979          5.348872
       Cell angle : alpha (o) =      89.960385         89.981116
       Cell angle : beta  (o) =      90.065927         90.044498
       Cell angle : gamma (o) =     120.012282        119.998014
       Cell volume :   (A**3) =     108.268560        108.261931
  ** Time :            0.03000 ps :
     Properties:                   Instantaneous       Averaged
       Kinetic energy    (eV) =       2.073936          2.061881
       Potential energy  (eV) =    -382.906501       -383.134722
       Total energy      (eV) =    -380.832566       -381.072841
       Temperature       (K)  =    2005.583188       1993.925654
       C/S temperature   (K)  =       0.276593          0.471442
       Pressure         (GPa) =       3.102341          1.462557
       Cell parameter : a (A) =       4.846617          4.840064
       Cell parameter : b (A) =       4.831820          4.831870
       Cell parameter : c (A) =       5.343533          5.347092
       Cell angle : alpha (o) =      89.929283         89.963838
       Cell angle : beta  (o) =      90.034743         90.041247
       Cell angle : gamma (o) =     120.079097        120.025042
       Cell volume :   (A**3) =     108.283307        108.269056
  ** Time :            0.04000 ps :
     Properties:                   Instantaneous       Averaged
       Kinetic energy    (eV) =       2.067394          2.063259
       Potential energy  (eV) =    -384.696548       -383.525179
       Total energy      (eV) =    -382.629154       -381.461919
       Temperature       (K)  =    1999.257600       1995.258640
       C/S temperature   (K)  =       0.304130          0.429614
       Pressure         (GPa) =       5.620438          2.500060
       Cell parameter : a (A) =       4.851322          4.842878
       Cell parameter : b (A) =       4.836054          4.832916
       Cell parameter : c (A) =       5.344355          5.346408
       Cell angle : alpha (o) =      90.005572         89.974272
       Cell angle : beta  (o) =      89.945640         90.017345
       Cell angle : gamma (o) =     120.099427        120.043638
       Cell volume :   (A**3) =     108.477818        108.321247
  ** Time :            0.05000 ps :
     Properties:                   Instantaneous       Averaged
       Kinetic energy    (eV) =       2.053460          2.061299
       Potential energy  (eV) =    -383.202454       -383.460634
       Total energy      (eV) =    -381.148994       -381.399334
       Temperature       (K)  =    1985.782213       1993.363355
       C/S temperature   (K)  =       0.252189          0.394129
       Pressure         (GPa) =       9.058124          3.806058
       Cell parameter : a (A) =       4.849715          4.844246
       Cell parameter : b (A) =       4.841079          4.834549
       Cell parameter : c (A) =       5.351665          5.347459
       Cell angle : alpha (o) =      90.132408         90.005899
       Cell angle : beta  (o) =      89.943008         90.002478
       Cell angle : gamma (o) =     120.026217        120.040154
       Cell volume :   (A**3) =     108.783226        108.413643
  ** Time :            0.06000 ps :
     Properties:                   Instantaneous       Averaged
       Kinetic energy    (eV) =       2.064150          2.061774
       Potential energy  (eV) =    -383.546874       -383.475007
       Total energy      (eV) =    -381.482724       -381.413233
       Temperature       (K)  =    1996.119988       1993.822794
       C/S temperature   (K)  =       0.310783          0.380238
[...]
       Total energy      (eV) =    -381.576705       -381.549434
       Temperature       (K)  =    1986.894324       1986.607360
       C/S temperature   (K)  =       0.295523          0.389640
       Pressure         (GPa) =       2.225208          0.456625
       Cell parameter : a (A) =       4.891923          4.922576
       Cell parameter : b (A) =       5.051237          4.882686
       Cell parameter : c (A) =       4.979097          5.322833
       Cell angle : alpha (o) =      88.864447         91.018302
       Cell angle : beta  (o) =      91.958607         90.332548
       Cell angle : gamma (o) =     117.250156        120.654653
       Cell volume :   (A**3) =     109.314767        109.685236
  ** Time :            0.05000 ps :
     Properties:                   Instantaneous       Averaged
       Kinetic energy    (eV) =       2.060651          2.055581
       Potential energy  (eV) =    -383.700206       -383.623039
       Total energy      (eV) =    -381.639555       -381.567458
       Temperature       (K)  =    1992.735968       1987.833082
       C/S temperature   (K)  =       0.289074          0.369527
       Pressure         (GPa) =      -2.671832         -0.181083
       Cell parameter : a (A) =       5.100500          4.958160
       Cell parameter : b (A) =       4.880242          4.882197
       Cell parameter : c (A) =       5.370953          5.332457
       Cell angle : alpha (o) =      89.042405         90.623123
       Cell angle : beta  (o) =      91.173426         90.500724
       Cell angle : gamma (o) =     122.256121        120.974947
       Cell volume :   (A**3) =     113.033075        110.354804
  ** Time :            0.06000 ps :
     Properties:                   Instantaneous       Averaged
       Kinetic energy    (eV) =       2.062419          2.056720
       Potential energy  (eV) =    -383.459343       -383.595756
       Total energy      (eV) =    -381.396923       -381.539036
       Temperature       (K)  =    1994.446486       1988.935316
       C/S temperature   (K)  =       0.173761          0.336899
       Pressure         (GPa) =       1.337959          0.067705
       Cell parameter : a (A) =       4.825512          4.936052
       Cell parameter : b (A) =       4.771406          4.863732
       Cell parameter : c (A) =       5.567005          5.371548
       Cell angle : alpha (o) =      89.929265         90.507480
       Cell angle : beta  (o) =      91.059417         90.593839
       Cell angle : gamma (o) =     121.004261        120.979832
       Cell volume :   (A**3) =     109.840625        110.269107
  ** Time :            0.07000 ps :
     Properties:                   Instantaneous       Averaged
       Kinetic energy    (eV) =       2.056387          2.056673
       Potential energy  (eV) =    -384.213756       -383.684042
       Total energy      (eV) =    -382.157370       -381.627369
       Temperature       (K)  =    1988.612512       1988.889201
       C/S temperature   (K)  =       0.291188          0.330369
       Pressure         (GPa) =       0.350253          0.108410
       Cell parameter : a (A) =       4.767123          4.911920
       Cell parameter : b (A) =       4.864159          4.863793
       Cell parameter : c (A) =       5.357756          5.369578
       Cell angle : alpha (o) =      89.847142         90.413146
       Cell angle : beta  (o) =      89.218428         90.397352
       Cell angle : gamma (o) =     118.466637        120.620804
       Cell volume :   (A**3) =     109.199042        110.116241
  ** Time :            0.08000 ps :
     Properties:                   Instantaneous       Averaged
       Kinetic energy    (eV) =       2.066516          2.057903
       Potential energy  (eV) =    -383.588110       -383.672050
       Total energy      (eV) =    -381.521594       -381.614147
       Temperature       (K)  =    1998.408568       1990.079122
       C/S temperature   (K)  =       0.229031          0.317702
       Pressure         (GPa) =      -1.482302         -0.088709
       Cell parameter : a (A) =       4.702420          4.885732
       Cell parameter : b (A) =       4.739409          4.848245
       Cell parameter : c (A) =       5.467417          5.381808
       Cell angle : alpha (o) =      92.234494         90.640814
       Cell angle : beta  (o) =      87.079111         89.982572
       Cell angle : gamma (o) =     118.179237        120.315608
       Cell volume :   (A**3) =     107.253295        109.758373
  ** Time :            0.09000 ps :
     Properties:                   Instantaneous       Averaged
       Kinetic energy    (eV) =       2.067474          2.058967
       Potential energy  (eV) =    -383.068229       -383.604959
       Total energy      (eV) =    -381.000755       -381.545993
       Temperature       (K)  =    1999.334842       1991.107535
       C/S temperature   (K)  =       0.331538          0.319239
       Pressure         (GPa) =       4.524430          0.424533
       Cell parameter : a (A) =       4.686449          4.863590
       Cell parameter : b (A) =       4.767321          4.839253
       Cell parameter : c (A) =       5.501261          5.395080
       Cell angle : alpha (o) =      89.963119         90.565515
       Cell angle : beta  (o) =      89.913501         89.974897
       Cell angle : gamma (o) =     118.343265        120.096459
       Cell volume :   (A**3) =     108.173508        109.582276
  ** Time :            0.10000 ps :
     Properties:                   Instantaneous       Averaged
       Kinetic energy    (eV) =       2.064442          2.059514
       Potential energy  (eV) =    -382.965249       -383.540988
       Total energy      (eV) =    -380.900807       -381.481474
       Temperature       (K)  =    1996.402166       1991.636998
       C/S temperature   (K)  =       0.372773          0.324593
       Pressure         (GPa) =      -5.933037         -0.231169
       Cell parameter : a (A) =       5.294770          4.906708
       Cell parameter : b (A) =       4.950545          4.850383
       Cell parameter : c (A) =       5.348569          5.390429
       Cell angle : alpha (o) =      86.610611         90.170025
       Cell angle : beta  (o) =      93.058974         90.283305
       Cell angle : gamma (o) =     125.340054        120.620819
       Cell volume :   (A**3) =     114.131435        110.037192
  ** Time :            0.11000 ps :
     Properties:                   Instantaneous       Averaged
       Kinetic energy    (eV) =       2.068676          2.060347
       Potential energy  (eV) =    -383.500221       -383.537282
       Total energy      (eV) =    -381.431544       -381.476935
       Temperature       (K)  =    2000.497287       1992.442479
       C/S temperature   (K)  =       0.409398          0.332302
       Pressure         (GPa) =       5.114806          0.242058
       Cell parameter : a (A) =       4.914467          4.907413
       Cell parameter : b (A) =       4.826493          4.848211
       Cell parameter : c (A) =       5.377708          5.389273
       Cell angle : alpha (o) =      90.639136         90.212671
       Cell angle : beta  (o) =      90.099807         90.266623
       Cell angle : gamma (o) =     122.480188        120.789852
       Cell volume :   (A**3) =     107.593208        109.815012
  ** Time :            0.12000 ps :
     Properties:                   Instantaneous       Averaged
       Kinetic energy    (eV) =       2.071154          2.061248
       Potential energy  (eV) =    -381.871725       -383.398486
       Total energy      (eV) =    -379.800571       -381.337238
       Temperature       (K)  =    2002.893275       1993.313379
       C/S temperature   (K)  =       0.127404          0.315227
       Pressure         (GPa) =      -7.436485         -0.397113
       Cell parameter : a (A) =       4.364517          4.862172
       Cell parameter : b (A) =       4.985761          4.859673
       Cell parameter : c (A) =       5.337558          5.384963
       Cell angle : alpha (o) =      91.973550         90.359411
       Cell angle : beta  (o) =      82.488960         89.618485
       Cell angle : gamma (o) =     111.331927        120.001692
       Cell volume :   (A**3) =     107.251052        109.601349
  ** Time :            0.13000 ps :
     Properties:                   Instantaneous       Averaged
       Kinetic energy    (eV) =       2.061439          2.061262
       Potential energy  (eV) =    -382.934607       -383.362803
       Total energy      (eV) =    -380.873168       -381.301540
       Temperature       (K)  =    1993.498570       1993.327624
       C/S temperature   (K)  =       0.262956          0.311206
       Pressure         (GPa) =      16.875788          0.889769
       Cell parameter : a (A) =       4.318016          4.820313
       Cell parameter : b (A) =       4.843175          4.858404
       Cell parameter : c (A) =       5.190273          5.369987
       Cell angle : alpha (o) =      92.684171         90.538239
       Cell angle : beta  (o) =      79.523391         88.841939
       Cell angle : gamma (o) =     115.504906        119.655785
       Cell volume :   (A**3) =      96.272206        108.576030
  ** Time :            0.14000 ps :
     Properties:                   Instantaneous       Averaged
       Kinetic energy    (eV) =       2.068189          2.061757
       Potential energy  (eV) =    -381.970409       -383.263346
       Total energy      (eV) =    -379.902220       -381.201589
       Temperature       (K)  =    2000.026273       1993.806099
       C/S temperature   (K)  =       0.301632          0.310523
       Pressure         (GPa) =     -16.399860         -0.477348
       Cell parameter : a (A) =       4.882194          4.824734
       Cell parameter : b (A) =       4.807265          4.854751
       Cell parameter : c (A) =       5.841139          5.403641
       Cell angle : alpha (o) =      91.340748         90.595561
       Cell angle : beta  (o) =      87.087275         88.716606
       Cell angle : gamma (o) =     123.171105        119.906879
       Cell volume :   (A**3) =     114.601314        109.006407
  ** Time :            0.15000 ps :
     Properties:                   Instantaneous       Averaged
       Kinetic energy    (eV) =       2.070533          2.062342
       Potential energy  (eV) =    -381.888781       -383.171708
       Total energy      (eV) =    -379.818248       -381.109366
       Temperature       (K)  =    2002.292756       1994.371876
       C/S temperature   (K)  =       0.294745          0.309471
       Pressure         (GPa) =      19.900881          0.820115
       Cell parameter : a (A) =       4.998437          4.836314
       Cell parameter : b (A) =       4.463687          4.828681
       Cell parameter : c (A) =       5.449464          5.406696
       Cell angle : alpha (o) =      88.141174         90.431935
       Cell angle : beta  (o) =      91.862982         88.926364
       Cell angle : gamma (o) =     123.955922        120.176816
       Cell volume :   (A**3) =     100.782955        108.458177
  ** Time :            0.16000 ps :
     Properties:                   Instantaneous       Averaged
       Kinetic energy    (eV) =       2.076181          2.063207
       Potential energy  (eV) =    -382.588502       -383.135258
       Total energy      (eV) =    -380.512322       -381.072051
       Temperature       (K)  =    2007.754167       1995.208269
       C/S temperature   (K)  =       0.681773          0.332740
       Pressure         (GPa) =     -17.046114         -0.406731
       Cell parameter : a (A) =       5.005025          4.846858
       Cell parameter : b (A) =       5.003610          4.839614
       Cell parameter : c (A) =       5.366836          5.404204
       Cell angle : alpha (o) =      91.016355         90.468461
       Cell angle : beta  (o) =      85.471826         88.710456
       Cell angle : gamma (o) =     118.562552        120.075924
       Cell volume :   (A**3) =     117.646123        109.032424
  ** Time :            0.17000 ps :
     Properties:                   Instantaneous       Averaged
       Kinetic energy    (eV) =       2.056469          2.062811
       Potential energy  (eV) =    -383.158989       -383.136654
       Total energy      (eV) =    -381.102520       -381.073843
       Temperature       (K)  =    1988.692351       1994.824980
       C/S temperature   (K)  =       0.315155          0.331705
       Pressure         (GPa) =      24.077736          0.949160
       Cell parameter : a (A) =       4.447388          4.823360
       Cell parameter : b (A) =       4.742490          4.833901
       Cell parameter : c (A) =       4.995440          5.380159
       Cell angle : alpha (o) =      90.356489         90.461875
       Cell angle : beta  (o) =      82.230818         88.329300
       Cell angle : gamma (o) =     112.400966        119.624456
       Cell volume :   (A**3) =      96.399376        108.289303
  ** Time :            0.18000 ps :
     Properties:                   Instantaneous       Averaged
       Kinetic energy    (eV) =       2.076571          2.063575
       Potential energy  (eV) =    -381.577367       -383.050027
       Total energy      (eV) =    -379.500796       -380.986452
       Temperature       (K)  =    2008.131607       1995.564237
       C/S temperature   (K)  =       0.539722          0.343262
       Pressure         (GPa) =     -18.531700         -0.306843
       Cell parameter : a (A) =       4.915678          4.828489
       Cell parameter : b (A) =       4.893424          4.837207
       Cell parameter : c (A) =       5.619336          5.393447
       Cell angle : alpha (o) =      89.286049         90.396551
       Cell angle : beta  (o) =      87.736261         88.296354
       Cell angle : gamma (o) =     117.644922        119.514482
       Cell volume :   (A**3) =     119.573438        108.916200
  ** Time :            0.19000 ps :
     Properties:                   Instantaneous       Averaged
       Kinetic energy    (eV) =       2.064153          2.063606
       Potential energy  (eV) =    -382.556230       -383.024037
       Total energy      (eV) =    -380.492077       -380.960432
       Temperature       (K)  =    1996.122918       1995.593641
       C/S temperature   (K)  =       0.212609          0.336385
       Pressure         (GPa) =      20.121527          0.712238
       Cell parameter : a (A) =       5.109709          4.843290
       Cell parameter : b (A) =       4.575528          4.823435
       Cell parameter : c (A) =       5.226986          5.384686
       Cell angle : alpha (o) =      88.093005         90.275312
       Cell angle : beta  (o) =      92.732649         88.529843
       Cell angle : gamma (o) =     124.800246        119.792680
       Cell volume :   (A**3) =     100.231338        108.459102
  ** Time :            0.20000 ps :
     Properties:                   Instantaneous       Averaged
       Kinetic energy    (eV) =       2.066621          2.063756
       Potential energy  (eV) =    -383.864076       -383.066039
       Total energy      (eV) =    -381.797455       -381.002283
       Temperature       (K)  =    1998.509834       1995.739451
       C/S temperature   (K)  =       0.323452          0.335739
       Pressure         (GPa) =     -15.601961         -0.206918
       Cell parameter : a (A) =       5.169781          4.859614
       Cell parameter : b (A) =       4.865145          4.825520
       Cell parameter : c (A) =       5.387399          5.384822
       Cell angle : alpha (o) =      89.972731         90.260183
       Cell angle : beta  (o) =      89.078742         88.557288
       Cell angle : gamma (o) =     119.149402        119.760516
       Cell volume :   (A**3) =     118.320752        108.952184

  Timing analysis for GULP :

  Task / Subroutine                                          Time (Seconds)
  Calculation of reciprocal space energy and derivatives          1.0112
  Calculation of real space energy and derivatives                9.4521
  Calculation of three-body energy and derivatives                0.0321
  Calculation of matrix inversion                                 0.0065
  Symmetry generation of equivalent positions                     0.0002
  Molecular dynamics - update of geometry                         0.0274
  Molecular dynamics - predictor                                  0.0044
  Molecular dynamics - corrector                                  0.0322
  Molecular dynamics - velocity correction                        0.0194
  Global summation overhead                                       0.0056

  GULP trajectory file written as quartz-npt.trg

  Job Finished at 23:29.31  5th August     2022