  Job Started  at 12:42.57  2nd August     2022

  Number of CPUs =     1

  Total number of configurations input =      1

*  Input for Configuration =   1                                               *

  Formula = Ar64

  Number of irreducible atoms/shells =      64

  Total number atoms/shells =      64

  Dimensionality = 3               :  Bulk

  Cartesian lattice vectors (Angstroms) :

       14.565000    0.000000    0.000000
        0.000000   14.565000    0.000000
        0.000000    0.000000   14.565000

  Cell parameters (Angstroms/Degrees):

  a =      14.5650    alpha =  90.0000
  b =      14.5650    beta  =  90.0000
  c =      14.5650    gamma =  90.0000

  Initial cell volume =        3089.807812 Angs**3

  Temperature of configuration =   60.0     K

  Pressure of configuration =         0.000 GPa

  Fractional coordinates of asymmetric unit :

   No.  Atomic       x           y          z         Charge      Occupancy
        Label      (Frac)      (Frac)     (Frac)        (e)         (Frac)
      1 Ar1   c    0.000000 *  0.000000 *  0.000000 *   0.00000    1.000000
      2 Ar1   c    0.000000 *  0.000000 *  0.249983 *   0.00000    1.000000
      3 Ar1   c    0.000000 *  0.000000 *  0.500034 *   0.00000    1.000000
      4 Ar1   c    0.000000 *  0.000000 *  0.750017 *   0.00000    1.000000
      5 Ar1   c    0.000000 *  0.249983 *  0.000000 *   0.00000    1.000000
      6 Ar1   c    0.000000 *  0.249983 *  0.249983 *   0.00000    1.000000
      7 Ar1   c    0.000000 *  0.249983 *  0.500034 *   0.00000    1.000000
      8 Ar1   c    0.000000 *  0.249983 *  0.750017 *   0.00000    1.000000
      9 Ar1   c    0.000000 *  0.500034 *  0.000000 *   0.00000    1.000000
     10 Ar1   c    0.000000 *  0.500034 *  0.249983 *   0.00000    1.000000
     11 Ar1   c    0.000000 *  0.500034 *  0.500034 *   0.00000    1.000000
     12 Ar1   c    0.000000 *  0.500034 *  0.750017 *   0.00000    1.000000
     13 Ar1   c    0.000000 *  0.750017 *  0.000000 *   0.00000    1.000000
     14 Ar1   c    0.000000 *  0.750017 *  0.249983 *   0.00000    1.000000
     15 Ar1   c    0.000000 *  0.750017 *  0.500034 *   0.00000    1.000000
     16 Ar1   c    0.000000 *  0.750017 *  0.750017 *   0.00000    1.000000
     17 Ar1   c    0.249983 *  0.000000 *  0.000000 *   0.00000    1.000000
     18 Ar1   c    0.249983 *  0.000000 *  0.249983 *   0.00000    1.000000
     19 Ar1   c    0.249983 *  0.000000 *  0.500034 *   0.00000    1.000000
     20 Ar1   c    0.249983 *  0.000000 *  0.750017 *   0.00000    1.000000
     21 Ar1   c    0.249983 *  0.249983 *  0.000000 *   0.00000    1.000000
     22 Ar1   c    0.249983 *  0.249983 *  0.249983 *   0.00000    1.000000
     23 Ar1   c    0.249983 *  0.249983 *  0.500034 *   0.00000    1.000000
     24 Ar1   c    0.249983 *  0.249983 *  0.750017 *   0.00000    1.000000
     25 Ar1   c    0.249983 *  0.500034 *  0.000000 *   0.00000    1.000000
     26 Ar1   c    0.249983 *  0.500034 *  0.249983 *   0.00000    1.000000
     27 Ar1   c    0.249983 *  0.500034 *  0.500034 *   0.00000    1.000000
     28 Ar1   c    0.249983 *  0.500034 *  0.750017 *   0.00000    1.000000
     29 Ar1   c    0.249983 *  0.750017 *  0.000000 *   0.00000    1.000000
     30 Ar1   c    0.249983 *  0.750017 *  0.249983 *   0.00000    1.000000
     31 Ar1   c    0.249983 *  0.750017 *  0.500034 *   0.00000    1.000000
     32 Ar1   c    0.249983 *  0.750017 *  0.750017 *   0.00000    1.000000
     33 Ar1   c    0.500034 *  0.000000 *  0.000000 *   0.00000    1.000000
     34 Ar1   c    0.500034 *  0.000000 *  0.249983 *   0.00000    1.000000
     35 Ar1   c    0.500034 *  0.000000 *  0.500034 *   0.00000    1.000000
     36 Ar1   c    0.500034 *  0.000000 *  0.750017 *   0.00000    1.000000
     37 Ar1   c    0.500034 *  0.249983 *  0.000000 *   0.00000    1.000000
     38 Ar1   c    0.500034 *  0.249983 *  0.249983 *   0.00000    1.000000
     39 Ar1   c    0.500034 *  0.249983 *  0.500034 *   0.00000    1.000000
     40 Ar1   c    0.500034 *  0.249983 *  0.750017 *   0.00000    1.000000
     41 Ar1   c    0.500034 *  0.500034 *  0.000000 *   0.00000    1.000000
     42 Ar1   c    0.500034 *  0.500034 *  0.249983 *   0.00000    1.000000
     43 Ar1   c    0.500034 *  0.500034 *  0.500034 *   0.00000    1.000000
     44 Ar1   c    0.500034 *  0.500034 *  0.750017 *   0.00000    1.000000
     45 Ar1   c    0.500034 *  0.750017 *  0.000000 *   0.00000    1.000000
     46 Ar1   c    0.500034 *  0.750017 *  0.249983 *   0.00000    1.000000
     47 Ar1   c    0.500034 *  0.750017 *  0.500034 *   0.00000    1.000000
     48 Ar1   c    0.500034 *  0.750017 *  0.750017 *   0.00000    1.000000
     49 Ar1   c    0.750017 *  0.000000 *  0.000000 *   0.00000    1.000000
     50 Ar1   c    0.750017 *  0.000000 *  0.249983 *   0.00000    1.000000
     51 Ar1   c    0.750017 *  0.000000 *  0.500034 *   0.00000    1.000000
     52 Ar1   c    0.750017 *  0.000000 *  0.750017 *   0.00000    1.000000
     53 Ar1   c    0.750017 *  0.249983 *  0.000000 *   0.00000    1.000000
     54 Ar1   c    0.750017 *  0.249983 *  0.249983 *   0.00000    1.000000
     55 Ar1   c    0.750017 *  0.249983 *  0.500034 *   0.00000    1.000000
     56 Ar1   c    0.750017 *  0.249983 *  0.750017 *   0.00000    1.000000
     57 Ar1   c    0.750017 *  0.500034 *  0.000000 *   0.00000    1.000000
     58 Ar1   c    0.750017 *  0.500034 *  0.249983 *   0.00000    1.000000
     59 Ar1   c    0.750017 *  0.500034 *  0.500034 *   0.00000    1.000000
     60 Ar1   c    0.750017 *  0.500034 *  0.750017 *   0.00000    1.000000
     61 Ar1   c    0.750017 *  0.750017 *  0.000000 *   0.00000    1.000000
     62 Ar1   c    0.750017 *  0.750017 *  0.249983 *   0.00000    1.000000
     63 Ar1   c    0.750017 *  0.750017 *  0.500034 *   0.00000    1.000000
     64 Ar1   c    0.750017 *  0.750017 *  0.750017 *   0.00000    1.000000

  Molecule list generated from bond lengths :

  Total number of molecules =     0

*  General input information                                                   *

  Species output for all configurations :

  Species    Type    Atomic    Atomic    Charge       Radii (Angs)     Library
                     Number     Mass       (e)     Cova   Ionic  VDW   Symbol
    Ar1      Core       18      39.95   0.000000   0.000  0.000  0.000 Ar4+4

  Universal Force Field (UFF) species output:

  Species    Type    Radius    Theta    Distance    Energy     Zeta     Zeff
                     (Ang)   (degrees)   (Ang)       (eV)               (e)
    Ar1      Core    1.0320    90.000     3.8680    0.0080   15.7630   0.2994

  Lattice summation method               =    Ewald          (3-D)
                                         =    Parry          (2-D)
                                         =    Saunders et al (1-D)
  Accuracy factor for lattice sums       =   12.000

  Analytic derivatives to be used

  Time limit = Infinity

  Maximum range for interatomic potentials =    100000.000000 Angstroms

  General interatomic potentials :

Atom  Types   Potential      Parameter       Value         Units   Cutoffs(Ang)
  1     2                                                            Min /  Max
Ar1  c Ar1  c Lennard       Lennard-Jones A  89979.376    eV*Ang^m  3Bond 10.000
                            Lennard-Jones B  53.734620    eV*Ang^n
                            Exponent m        12          None
                            Exponent n         6          None

  Intramolecular potentials :

Atom  Types   Potential      Parameter       Value         Units   Cutoffs(Ang)
  1     2                                                            Min /  Max
Ar1  c Ar1  c Harmonic      Harmonic k2     0.29359911    eV*Ang^-2 0.000 1 Bond
                            Harmonic r0      2.0640000    Ang
                            Harmonic k3      0.0000000    eV*Ang^-3
                            Harmonic k4      0.0000000    eV*Ang^-4
                                                                    single   cyc

  Intramolecular Three-body potentials :

  Atoms       Potential      Parameter       Value         Units   Cutoffs(Ang)
  1 / 2 / 3                                                          Min /  Max
Ar1   core    Linear 3-body Three-body cnst 0.97315276E-02eV        0.000 1 Bond
Ar1   core                  Three-body sign -1.0000000    None      0.000 1 Bond
Ar1   core                                                          0.000

*  Output for configuration   1                                                *

  Components of energy :

  Interatomic potentials     =          -2.75724948 eV
  Three-body potentials      =           0.00000000 eV
  Monopole - monopole (real) =           0.00000000 eV
  Monopole - monopole (recip)=           0.00000000 eV
  Monopole - monopole (total)=           0.00000000 eV
  Total lattice energy       =          -2.75724948 eV
  Total lattice energy       =            -266.0324 kJ/(mole unit cells)

  MSI Archive (version 3) open for Movie as Ar_rho_0.0207125_N=64_cubic_60_TS=01_3D.arc

  Electrostatic potential at atomic positions :

 Site  Atomic      Potential                Derivatives (V/Angs)
 No.   Label          (V)                 x           y           z
     1 Ar1   c      0.000000           0.000000    0.000000    0.000000
     2 Ar1   c      0.000000           0.000000    0.000000    0.000000
     3 Ar1   c      0.000000           0.000000    0.000000    0.000000
     4 Ar1   c      0.000000           0.000000    0.000000    0.000000
     5 Ar1   c      0.000000           0.000000    0.000000    0.000000
     6 Ar1   c      0.000000           0.000000    0.000000    0.000000
     7 Ar1   c      0.000000           0.000000    0.000000    0.000000
     8 Ar1   c      0.000000           0.000000    0.000000    0.000000
     9 Ar1   c      0.000000           0.000000    0.000000    0.000000
    10 Ar1   c      0.000000           0.000000    0.000000    0.000000
    11 Ar1   c      0.000000           0.000000    0.000000    0.000000
    12 Ar1   c      0.000000           0.000000    0.000000    0.000000
    13 Ar1   c      0.000000           0.000000    0.000000    0.000000
    14 Ar1   c      0.000000           0.000000    0.000000    0.000000
    15 Ar1   c      0.000000           0.000000    0.000000    0.000000
    16 Ar1   c      0.000000           0.000000    0.000000    0.000000
    17 Ar1   c      0.000000           0.000000    0.000000    0.000000
    18 Ar1   c      0.000000           0.000000    0.000000    0.000000
    19 Ar1   c      0.000000           0.000000    0.000000    0.000000
    20 Ar1   c      0.000000           0.000000    0.000000    0.000000
    21 Ar1   c      0.000000           0.000000    0.000000    0.000000
    22 Ar1   c      0.000000           0.000000    0.000000    0.000000
    23 Ar1   c      0.000000           0.000000    0.000000    0.000000
    24 Ar1   c      0.000000           0.000000    0.000000    0.000000
    25 Ar1   c      0.000000           0.000000    0.000000    0.000000
    26 Ar1   c      0.000000           0.000000    0.000000    0.000000
    27 Ar1   c      0.000000           0.000000    0.000000    0.000000
[...]
     Properties:                   Instantaneous       Averaged
       Kinetic energy    (eV) =       0.547415          0.619697
       Potential energy  (eV) =      -2.823518         -2.896851
       Total energy      (eV) =      -2.276103         -2.277154
       Temperature       (K)  =      67.221993         76.098172
       Pressure         (GPa) =       0.064802          0.046000
  ** Time :            4.64000 ps :
     Properties:                   Instantaneous       Averaged
       Kinetic energy    (eV) =       0.543238          0.619532
       Potential energy  (eV) =      -2.819126         -2.896684
       Total energy      (eV) =      -2.275889         -2.277152
       Temperature       (K)  =      66.709039         76.077937
       Pressure         (GPa) =       0.065823          0.046043
  ** Time :            4.65000 ps :
     Properties:                   Instantaneous       Averaged
       Kinetic energy    (eV) =       0.542157          0.619366
       Potential energy  (eV) =      -2.817991         -2.896515
       Total energy      (eV) =      -2.275835         -2.277149
       Temperature       (K)  =      66.576281         76.057504
       Pressure         (GPa) =       0.066149          0.046086
  ** Time :            4.66000 ps :
     Properties:                   Instantaneous       Averaged
       Kinetic energy    (eV) =       0.544060          0.619204
       Potential energy  (eV) =      -2.819841         -2.896350
       Total energy      (eV) =      -2.275781         -2.277146
       Temperature       (K)  =      66.809995         76.037659
       Pressure         (GPa) =       0.065815          0.046129
  ** Time :            4.67000 ps :
     Properties:                   Instantaneous       Averaged
       Kinetic energy    (eV) =       0.548394          0.619053
       Potential energy  (eV) =      -2.824175         -2.896196
       Total energy      (eV) =      -2.275781         -2.277143
       Temperature       (K)  =      67.342180         76.019039
       Pressure         (GPa) =       0.064924          0.046169
  ** Time :            4.68000 ps :
     Properties:                   Instantaneous       Averaged
       Kinetic energy    (eV) =       0.554315          0.618914
       Potential energy  (eV) =      -2.829989         -2.896054
       Total energy      (eV) =      -2.275674         -2.277140
       Temperature       (K)  =      68.069361         76.002053
       Pressure         (GPa) =       0.063664          0.046206
  ** Time :            4.69000 ps :
     Properties:                   Instantaneous       Averaged
       Kinetic energy    (eV) =       0.560896          0.618791
       Potential energy  (eV) =      -2.836784         -2.895928
       Total energy      (eV) =      -2.275889         -2.277137
       Temperature       (K)  =      68.877416         75.986862
       Pressure         (GPa) =       0.062186          0.046240
  ** Time :            4.70000 ps :
     Properties:                   Instantaneous       Averaged
       Kinetic energy    (eV) =       0.567338          0.618681
       Potential energy  (eV) =      -2.843173         -2.895816
       Total energy      (eV) =      -2.275835         -2.277135
       Temperature       (K)  =      69.668513         75.973418
       Pressure         (GPa) =       0.060720          0.046271
  ** Time :            4.71000 ps :
     Properties:                   Instantaneous       Averaged
       Kinetic energy    (eV) =       0.573139          0.618584
       Potential energy  (eV) =      -2.848920         -2.895716
       Total energy      (eV) =      -2.275781         -2.277132
       Temperature       (K)  =      70.380872         75.961545
       Pressure         (GPa) =       0.059354          0.046299
  ** Time :            4.72000 ps :
     Properties:                   Instantaneous       Averaged
       Kinetic energy    (eV) =       0.578128          0.618499
       Potential energy  (eV) =      -2.853641         -2.895627
       Total energy      (eV) =      -2.275513         -2.277128
       Temperature       (K)  =      70.993587         75.951019
       Pressure         (GPa) =       0.058161          0.046324
  ** Time :            4.73000 ps :
     Properties:                   Instantaneous       Averaged
       Kinetic energy    (eV) =       0.582329          0.618422
       Potential energy  (eV) =      -2.857896         -2.895547
       Total energy      (eV) =      -2.275567         -2.277125
       Temperature       (K)  =      71.509462         75.941629
       Pressure         (GPa) =       0.057094          0.046347
  ** Time :            4.74000 ps :
     Properties:                   Instantaneous       Averaged
       Kinetic energy    (eV) =       0.585768          0.618353
       Potential energy  (eV) =      -2.861388         -2.895475
       Total energy      (eV) =      -2.275620         -2.277122
       Temperature       (K)  =      71.931684         75.933169
       Pressure         (GPa) =       0.056192          0.046367
  ** Time :            4.75000 ps :
     Properties:                   Instantaneous       Averaged
       Kinetic energy    (eV) =       0.588359          0.618290
       Potential energy  (eV) =      -2.864033         -2.895409
       Total energy      (eV) =      -2.275674         -2.277119
       Temperature       (K)  =      72.249886         75.925415
       Pressure         (GPa) =       0.055475          0.046387
  ** Time :            4.76000 ps :
     Properties:                   Instantaneous       Averaged
       Kinetic energy    (eV) =       0.589949          0.618231
       Potential energy  (eV) =      -2.865730         -2.895346
       Total energy      (eV) =      -2.275781         -2.277116
       Temperature       (K)  =      72.445117         75.918103
       Pressure         (GPa) =       0.054970          0.046405
  ** Time :            4.77000 ps :
     Properties:                   Instantaneous       Averaged
       Kinetic energy    (eV) =       0.590464          0.618172
       Potential energy  (eV) =      -2.866031         -2.895285
       Total energy      (eV) =      -2.275567         -2.277113
       Temperature       (K)  =      72.508448         75.910955
       Pressure         (GPa) =       0.054725          0.046422
  ** Time :            4.78000 ps :
     Properties:                   Instantaneous       Averaged
       Kinetic energy    (eV) =       0.590023          0.618113
       Potential energy  (eV) =      -2.865697         -2.895223
       Total energy      (eV) =      -2.275674         -2.277110
       Temperature       (K)  =      72.454201         75.903724
       Pressure         (GPa) =       0.054646          0.046439
  ** Time :            4.79000 ps :
     Properties:                   Instantaneous       Averaged
       Kinetic energy    (eV) =       0.588927          0.618053
       Potential energy  (eV) =      -2.864815         -2.895160
       Total energy      (eV) =      -2.275889         -2.277107
       Temperature       (K)  =      72.319595         75.896241
       Pressure         (GPa) =       0.054693          0.046457
  ** Time :            4.80000 ps :
     Properties:                   Instantaneous       Averaged
       Kinetic energy    (eV) =       0.587549          0.617989
       Potential energy  (eV) =      -2.863545         -2.895094
       Total energy      (eV) =      -2.275996         -2.277105
       Temperature       (K)  =      72.150481         75.888437
       Pressure         (GPa) =       0.054808          0.046474
  ** Time :            4.81000 ps :
     Properties:                   Instantaneous       Averaged
       Kinetic energy    (eV) =       0.586211          0.617923
       Potential energy  (eV) =      -2.862368         -2.895026
       Total energy      (eV) =      -2.276157         -2.277103
       Temperature       (K)  =      71.986186         75.880325
       Pressure         (GPa) =       0.054907          0.046492
  ** Time :            4.82000 ps :
     Properties:                   Instantaneous       Averaged
       Kinetic energy    (eV) =       0.585106          0.617855
       Potential energy  (eV) =      -2.860941         -2.894955
       Total energy      (eV) =      -2.275835         -2.277100
       Temperature       (K)  =      71.850423         75.871964
       Pressure         (GPa) =       0.054998          0.046509
  ** Time :            4.83000 ps :
     Properties:                   Instantaneous       Averaged
       Kinetic energy    (eV) =       0.584316          0.617785
       Potential energy  (eV) =      -2.860097         -2.894883
       Total energy      (eV) =      -2.275781         -2.277097
       Temperature       (K)  =      71.753448         75.863437
       Pressure         (GPa) =       0.054982          0.046527
  ** Time :            4.84000 ps :
     Properties:                   Instantaneous       Averaged
       Kinetic energy    (eV) =       0.583889          0.617715
       Potential energy  (eV) =      -2.859563         -2.894810
       Total energy      (eV) =      -2.275674         -2.277094
       Temperature       (K)  =      71.701020         75.854837
       Pressure         (GPa) =       0.054873          0.046544
  ** Time :            4.85000 ps :
     Properties:                   Instantaneous       Averaged
       Kinetic energy    (eV) =       0.583973          0.617646
       Potential energy  (eV) =      -2.859647         -2.894737
       Total energy      (eV) =      -2.275674         -2.277092
       Temperature       (K)  =      71.711260         75.846293
       Pressure         (GPa) =       0.054622          0.046561
  ** Time :            4.86000 ps :
     Properties:                   Instantaneous       Averaged
       Kinetic energy    (eV) =       0.584883          0.617578
       Potential energy  (eV) =      -2.860450         -2.894667
       Total energy      (eV) =      -2.275567         -2.277088
       Temperature       (K)  =      71.823045         75.838015
       Pressure         (GPa) =       0.054184          0.046576
  ** Time :            4.87000 ps :
     Properties:                   Instantaneous       Averaged
       Kinetic energy    (eV) =       0.587042          0.617516
       Potential energy  (eV) =      -2.862501         -2.894601
       Total energy      (eV) =      -2.275459         -2.277085
       Temperature       (K)  =      72.088119         75.830315
       Pressure         (GPa) =       0.053467          0.046590
  ** Time :            4.88000 ps :
     Properties:                   Instantaneous       Averaged
       Kinetic energy    (eV) =       0.590746          0.617461
       Potential energy  (eV) =      -2.865991         -2.894542
       Total energy      (eV) =      -2.275245         -2.277081
       Temperature       (K)  =      72.542997         75.823579
       Pressure         (GPa) =       0.052424          0.046602
  ** Time :            4.89000 ps :
     Properties:                   Instantaneous       Averaged
       Kinetic energy    (eV) =       0.595948          0.617417
       Potential energy  (eV) =      -2.871569         -2.894495
       Total energy      (eV) =      -2.275620         -2.277078
       Temperature       (K)  =      73.181865         75.818177
       Pressure         (GPa) =       0.050993          0.046611
  ** Time :            4.90000 ps :
     Properties:                   Instantaneous       Averaged
       Kinetic energy    (eV) =       0.602235          0.617386
       Potential energy  (eV) =      -2.877909         -2.894461
       Total energy      (eV) =      -2.275674         -2.277075
       Temperature       (K)  =      73.953910         75.814372
       Pressure         (GPa) =       0.049350          0.046617
  ** Time :            4.91000 ps :
     Properties:                   Instantaneous       Averaged
       Kinetic energy    (eV) =       0.609048          0.617369
       Potential energy  (eV) =      -2.884829         -2.894442
       Total energy      (eV) =      -2.275781         -2.277073
       Temperature       (K)  =      74.790430         75.812287
       Pressure         (GPa) =       0.047569          0.046619
  ** Time :            4.92000 ps :
     Properties:                   Instantaneous       Averaged
       Kinetic energy    (eV) =       0.615955          0.617366
       Potential energy  (eV) =      -2.891683         -2.894436
       Total energy      (eV) =      -2.275728         -2.277070
       Temperature       (K)  =      75.638706         75.811934
       Pressure         (GPa) =       0.045758          0.046617
  ** Time :            4.93000 ps :
     Properties:                   Instantaneous       Averaged
       Kinetic energy    (eV) =       0.622810          0.617377
       Potential energy  (eV) =      -2.898323         -2.894444
       Total energy      (eV) =      -2.275513         -2.277067
       Temperature       (K)  =      76.480480         75.813290
       Pressure         (GPa) =       0.043956          0.046612
  ** Time :            4.94000 ps :
     Properties:                   Instantaneous       Averaged
       Kinetic energy    (eV) =       0.629680          0.617402
       Potential energy  (eV) =      -2.905407         -2.894466
       Total energy      (eV) =      -2.275728         -2.277064
       Temperature       (K)  =      77.324074         75.816348
       Pressure         (GPa) =       0.042098          0.046603
  ** Time :            4.95000 ps :
     Properties:                   Instantaneous       Averaged
       Kinetic energy    (eV) =       0.636695          0.617441
       Potential energy  (eV) =      -2.912529         -2.894503
       Total energy      (eV) =      -2.275835         -2.277062
       Temperature       (K)  =      78.185471         75.821134
       Pressure         (GPa) =       0.040222          0.046590
  ** Time :            4.96000 ps :
     Properties:                   Instantaneous       Averaged
       Kinetic energy    (eV) =       0.643903          0.617494
       Potential energy  (eV) =      -2.919792         -2.894554
       Total energy      (eV) =      -2.275888         -2.277059
       Temperature       (K)  =      79.070662         75.827686
       Pressure         (GPa) =       0.038324          0.046573
  ** Time :            4.97000 ps :
     Properties:                   Instantaneous       Averaged
       Kinetic energy    (eV) =       0.651210          0.617562
       Potential energy  (eV) =      -2.926884         -2.894619
       Total energy      (eV) =      -2.275674         -2.277057
       Temperature       (K)  =      79.967911         75.836016
       Pressure         (GPa) =       0.036451          0.046553
  ** Time :            4.98000 ps :
     Properties:                   Instantaneous       Averaged
       Kinetic energy    (eV) =       0.658400          0.617644
       Potential energy  (eV) =      -2.934181         -2.894698
       Total energy      (eV) =      -2.275781         -2.277054
       Temperature       (K)  =      80.850881         75.846086
       Pressure         (GPa) =       0.034594          0.046529
  ** Time :            4.99000 ps :
     Properties:                   Instantaneous       Averaged
       Kinetic energy    (eV) =       0.665184          0.617739
       Potential energy  (eV) =      -2.940858         -2.894791
       Total energy      (eV) =      -2.275674         -2.277051
       Temperature       (K)  =      81.683949         75.857785
       Pressure         (GPa) =       0.032872          0.046501
  ** Time :            5.00000 ps :
     Properties:                   Instantaneous       Averaged
       Kinetic energy    (eV) =       0.671263          0.617846
       Potential energy  (eV) =      -2.946829         -2.894895
       Total energy      (eV) =      -2.275567         -2.277048
       Temperature       (K)  =      82.430405         75.870930
       Pressure         (GPa) =       0.031328          0.046471

  Timing analysis for GULP :

  Task / Subroutine                                          Time (Seconds)
  Calculation of real space energy and derivatives               80.2844
  Calculation of matrix inversion                                 0.0574
  Molecular dynamics - update of geometry                         0.3602
  Molecular dynamics - predictor                                  0.0808
  Molecular dynamics - corrector                                  0.0889
  Molecular dynamics - velocity correction                        0.0693

  GULP trajectory file written as Ar_rho_0.0207125_N=64_cubic_60_TS=01.trg

  Job Finished at 12:44.19  2nd August     2022