  Job Started  at 19:23.39 25th July       2022

  Number of CPUs =     1

  Total number of configurations input =      1

*  Input for Configuration =   1                                               *

  Formula = Al4O6

  Number of irreducible atoms/shells =       4

  Total number atoms/shells =      20

  Dimensionality = 3               :  Bulk

  Symmetry :

  Crystal family                   :  Hexagonal
  Crystal class  (Groth - 1921)    :  Ditrigonal Scalenohedral

  Space group (centrosymmetric)    :  R -3 C

  Patterson group                  :  R -3 m

  Cartesian lattice vectors (Angstroms) :

        2.380100    1.374151    4.331100
       -2.380100    1.374151    4.331100
        0.000000   -2.748303    4.331100

  Primitive cell parameters :            Full cell parameters :

  a =   5.1295    alpha =  55.2915       a =   4.7602    alpha =  90.0000
  b =   5.1295    beta  =  55.2915       b =   4.7602    beta  =  90.0000
  c =   5.1295    gamma =  55.2915       c =  12.9933    gamma = 120.0000

  Initial volumes (Angstroms**3):

  Primitive cell =          84.992234    Full cell =         254.976701

  Temperature of configuration =   0.00     K

  Pressure of configuration =         0.000 GPa

  Fractional coordinates of asymmetric unit :

   No.  Atomic       x           y          z         Charge      Occupancy
        Label      (Frac)      (Frac)     (Frac)        (e)         (Frac)
      1 Al    c    0.000000    0.000000    0.352160 *   0.04300    1.000000
      2 O     c    0.306240 *  0.000000    0.250000     0.51300    1.000000
      3 Al    s    0.000000    0.000000    0.352160 *   2.95700    1.000000
      4 O     s    0.306240 *  0.000000    0.250000    -2.51300    1.000000

  Constraints :

  Constraint no.      Unconstrained     Constrained    Coefficient    Offset
                         Variable         Variable
           1              Strain 1        Strain 2       1.00000      0.0000

  Distance calculation :

  Cutoff for distances  =      2.000000 Angstroms

  Asymmetric unit site  Full lattice sites    No.  Distance      No.  Distance
      No.   At.No.            At.No.                (Angs)             (Angs)
       1   Al    core        O     core         3    1.8551        3    1.9716
                             O     shell        3    1.8551        3    1.9716
       2   O     core        Al    core         2    1.8551        2    1.9716
                             Al    shell        2    1.8551        2    1.9716
       3   Al    shell       O     core         3    1.8551        3    1.9716
                             O     shell        3    1.8551        3    1.9716
       4   O     shell       Al    core         2    1.8551        2    1.9716
                             Al    shell        2    1.8551        2    1.9716

  Brillouin zone sampling points :

  Point number          x          y          z            Weight
        1           0.000000   0.000000   0.000000     1.00000000

*  General input information                                                   *

  Species output for all configurations :

  Species    Type    Atomic    Atomic    Charge       Radii (Angs)     Library
                     Number     Mass       (e)     Cova   Ionic  VDW   Symbol
    Al       Core       13      26.98   0.043000   1.350  0.000  2.050
    Al       Shell      13       0.00   2.957000   1.350  0.000  2.050
    O        Core        8      16.00   0.513000   0.730  0.000  1.360
    O        Shell       8       0.00  -2.513000   0.730  0.000  1.360

  Lattice summation method               =    Ewald          (3-D)
                                         =    Parry          (2-D)
                                         =    Saunders et al (1-D)
  Accuracy factor for lattice sums       =   12.000

  Analytic derivatives to be used

  Time limit = Infinity

  Maximum range for interatomic potentials =    100000.000000 Angstroms

  General interatomic potentials :

Atom  Types   Potential      Parameter       Value         Units   Cutoffs(Ang)
  1     2                                                            Min /  Max
O    s Al   s Buckingham    Buckingham A     2409.5050    eV        0.000 10.000
                            Buckingham rho  0.26490000    Ang
                            Buckingham C     0.0000000    eV*Ang^6
O    s O    s Buckingham    Buckingham A     25.410000    eV        0.000 12.000
                            Buckingham rho  0.69370000    Ang
                            Buckingham C     32.320000    eV*Ang^6
Al   c Al   s Spring (c-s)  Spring k 2       403.98000    eV*Ang^-2 0.000  0.800
                            Spring k 4       0.0000000    eV*Ang^-4
O    c O    s Spring (c-s)  Spring k 2       20.530000    eV*Ang^-2 0.000  0.800
                            Spring k 4       0.0000000    eV*Ang^-4

*  Output for configuration   1                                                *

  Components of energy :

  Interatomic potentials     =          63.08516927 eV
  Monopole - monopole (real) =        -126.96762275 eV
  Monopole - monopole (recip)=        -250.81566546 eV
  Monopole - monopole (total)=        -377.78328821 eV
  Total lattice energy :
    Primitive unit cell      =        -314.69811894 eV
    Non-primitive unit cell  =        -944.09435681 eV
  Total lattice energy (in kJmol-1):
    Primitive unit cell      =          -30363.5579 kJ/(mole unit cells)
    Non-primitive unit cell  =          -91090.6736 kJ/(mole unit cells)

  Number of variables =        6

  Maximum number of calculations  =          1000
  Maximum Hessian update interval =            10
  Maximum step size               =   1.000000000
  Maximum parameter tolerance     =   0.000010000
  Maximum function  tolerance     =   0.000010000
  Maximum gradient  tolerance     =   0.001000000
  Maximum gradient  component     =   0.010000000

  Symmetry constrained optimisation

  Symmetry used for second derivatives

  Cell parameters to be optimised using strains

  Newton-Raphson optimiser to be used

  BFGS hessian update to be used

  Lower half triangular hessian to be used

  Start of bulk optimisation :

  ** Hessian calculated **

  **** Optimisation achieved ****

  Final energy =    -315.17328097 eV
  Final Gnorm  =       0.00009292

  Components of energy :

  Interatomic potentials     =          59.49166290 eV
  Monopole - monopole (real) =         -65.58577192 eV
  Monopole - monopole (recip)=        -309.07917195 eV
  Monopole - monopole (total)=        -374.66494386 eV
  Total lattice energy :
    Primitive unit cell      =        -315.17328097 eV
    Non-primitive unit cell  =        -945.51984290 eV
  Total lattice energy (in kJmol-1):
    Primitive unit cell      =          -30409.4037 kJ/(mole unit cells)
    Non-primitive unit cell  =          -91228.2112 kJ/(mole unit cells)

  Final asymmetric unit coordinates :

   No.  Atomic        x           y           z         Radius
        Label       (Frac)      (Frac)      (Frac)       (Angs)
     1  Al    c     0.000000    0.000000    0.356233    0.000000
     2  O     c     0.295773    0.000000    0.250000    0.000000
     3  Al    s     0.000000    0.000000    0.356234    0.000000
     4  O     s     0.297426    0.000000    0.250000    0.000000

  Final Cartesian lattice vectors (Angstroms) :

        2.410027    1.391430    4.337219
       -2.410027    1.391430    4.337219
        0.000000   -2.782860    4.337219

  Final cell parameters and derivatives :

       a            5.153230 Angstrom     dE/de1(xx)     0.000023 eV/strain
       b            5.153230 Angstrom     dE/de2(yy)     0.000000 eV/strain
       c            5.153230 Angstrom     dE/de3(zz)     0.000029 eV/strain
       alpha       55.766721 Degrees      dE/de4(yz)     0.000000 eV/strain
       beta        55.766721 Degrees      dE/de5(xz)     0.000000 eV/strain
       gamma       55.766721 Degrees      dE/de6(xy)     0.000000 eV/strain

  Primitive cell volume =            87.266162 Angs**3

  Density of cell =      3.880341 g/cm**3

  Non-primitive lattice parameters :

  a    =     4.820054  b   =     4.820054  c    =    13.011658
  alpha=    90.000000  beta=    90.000000  gamma=   120.000000

  Non-primitive cell volume =           261.798487 Angs**3

  Final internal derivatives :

   No.  Atomic          a             b             c           Radius
        Label          (eV)          (eV)          (eV)        (eV/Angs)
      1 Al    c       0.000000      0.000000      0.000004      0.000000
      2 O     c      -0.000242      0.000000      0.000000      0.000000
      3 Al    s       0.000000      0.000000     -0.000382      0.000000
      4 O     s       0.000324      0.000000      0.000000      0.000000
  Maximum abs         0.000324      0.000000      0.000382      0.000000

  Distance calculation :

  Cutoff for distances  =      2.000000 Angstroms

  Asymmetric unit site  Full lattice sites    No.  Distance      No.  Distance
      No.   At.No.            At.No.                (Angs)             (Angs)
       1   Al    core        O     core         3    1.8771        3    1.9857
                             O     shell        3    1.8729        3    1.9915
       2   O     core        Al    core         2    1.8771        2    1.9857
                             Al    shell        2    1.8771        2    1.9857
       3   Al    shell       O     core         3    1.8771        3    1.9857
                             O     shell        3    1.8729        3    1.9915
       4   O     shell       Al    core         2    1.8729        2    1.9915
                             Al    shell        2    1.8729        2    1.9915

  Born effective charge tensors :

  Atom             x           y             z
    1 Al    x       2.4472     -0.3703     -0.0000
            y       0.3703      2.4472     -0.0000
            z      -0.0000     -0.0000      2.7488
    2 O     x      -1.7494      0.0000     -0.0000
            y       0.0000     -1.5135      0.2579
            z      -0.0000      0.3340     -1.8325

  Core and shell Raman susceptibility tensors (Ang**-1):

  Atom                   x           y           z
   1 Al    core x      -0.2112     -0.0427      0.0910
     X          y      -0.0427      0.2112     -0.0014
                z       0.0910     -0.0014     -0.0000
                x      -0.0427      0.2112      0.0014
     Y          y       0.2112      0.0427      0.0910
                z       0.0014      0.0910     -0.0000
                x       0.0488      0.0000     -0.0000
     Z          y       0.0000      0.0488     -0.0000
                z      -0.0000     -0.0000     -0.2369
   2 Al    core x      -0.2112      0.0427     -0.0910
     X          y       0.0427      0.2112     -0.0014
                z      -0.0910     -0.0014      0.0000
                x       0.0427      0.2112      0.0014
     Y          y       0.2112     -0.0427     -0.0910
                z       0.0014     -0.0910     -0.0000
                x      -0.0488      0.0000      0.0000
     Z          y       0.0000     -0.0488     -0.0000
                z       0.0000     -0.0000      0.2369
[...]
                x      -2.6541      1.5323      0.5688
     Z          y       1.5323      2.6541     -0.9852
                z       0.5688     -0.9852      0.0000
  20 O     shel x      -7.7943     -1.1598      4.0161
     X          y      -1.1598      5.8989      2.5093
                z       4.0161      2.5093     -0.0109
                x      -0.4816      5.5073      2.1281
     Y          y       5.5073     -2.8013     -4.0161
                z       2.1281     -4.0161     -0.0189
                x       2.6541      1.5323      0.5688
     Z          y       1.5323     -2.6541      0.9852
                z       0.5688      0.9852      0.0000

  Atomic Raman susceptibility tensors (Ang**-1):

  Atom                   x           y           z
   1 Al    core x       5.5952      2.2540     -6.7105
     X          y       2.2540     -5.5952      0.5479
                z      -6.7105      0.5479      0.0000
                x       2.2540     -5.5952     -0.5479
     Y          y      -5.5952     -2.2540     -6.7105
                z      -0.5479     -6.7105     -0.0000
                x      -3.4100     -0.0000      0.0000
     Z          y      -0.0000     -3.4100     -0.0000
                z       0.0000     -0.0000      3.9367
   2 Al    core x       5.5952     -2.2540      6.7105
     X          y      -2.2540     -5.5952      0.5479
                z       6.7105      0.5479     -0.0000
                x      -2.2540     -5.5952     -0.5479
     Y          y      -5.5952      2.2540      6.7105
                z      -0.5479      6.7105      0.0000
                x       3.4100     -0.0000     -0.0000
     Z          y      -0.0000      3.4100      0.0000
                z      -0.0000      0.0000     -3.9367
   3 Al    core x      -5.5952     -2.2540      6.7105
     X          y      -2.2540      5.5952     -0.5479
                z       6.7105     -0.5479     -0.0000
                x      -2.2540      5.5952      0.5479
     Y          y       5.5952      2.2540      6.7105
                z       0.5479      6.7105      0.0000
                x       3.4100      0.0000     -0.0000
     Z          y       0.0000      3.4100      0.0000
                z      -0.0000      0.0000     -3.9367
   4 Al    core x      -5.5952      2.2540     -6.7105
     X          y       2.2540      5.5952     -0.5479
                z      -6.7105     -0.5479      0.0000
                x       2.2540      5.5952      0.5479
     Y          y       5.5952     -2.2540     -6.7105
                z       0.5479     -6.7105     -0.0000
                x      -3.4100      0.0000      0.0000
     Z          y       0.0000     -3.4100     -0.0000
                z       0.0000     -0.0000      3.9367
   5 O     core x       2.6041     -0.0000      0.0000
     X          y      -0.0000     -7.4870      4.6678
                z       0.0000      4.6678      0.1105
                x       0.0000     -7.8539      5.0040
     Y          y      -7.8539     -0.0000      0.0000
                z       5.0040      0.0000     -0.0000
                x       0.0000      3.0541      1.3663
     Z          y       3.0541      0.0000     -0.0000
                z       1.3663     -0.0000      0.0000
   6 O     core x       8.3726     -1.2161      4.1880
     X          y      -1.2161     -5.9311     -2.5860
                z       4.1880     -2.5860     -0.0552
                x      -0.8983     -5.7476     -2.2499
     Y          y      -5.7476     -3.3304     -4.1880
                z      -2.2499     -4.1880      0.0957
                x       2.6449     -1.5270     -0.6831
     Z          y      -1.5270     -2.6449      1.1832
                z      -0.6831      1.1832     -0.0000
   7 O     core x       8.3726      1.2161     -4.1880
     X          y       1.2161     -5.9311     -2.5860
                z      -4.1880     -2.5860     -0.0552
                x       0.8983     -5.7476     -2.2499
     Y          y      -5.7476      3.3304      4.1880
                z      -2.2499      4.1880     -0.0957
                x      -2.6449     -1.5270     -0.6831
     Z          y      -1.5270      2.6449     -1.1832
                z      -0.6831     -1.1832     -0.0000
   8 O     core x      -2.6041      0.0000     -0.0000
     X          y       0.0000      7.4870     -4.6678
                z      -0.0000     -4.6678     -0.1105
                x      -0.0000      7.8539     -5.0040
     Y          y       7.8539      0.0000     -0.0000
                z      -5.0040     -0.0000      0.0000
                x      -0.0000     -3.0541     -1.3663
     Z          y      -3.0541     -0.0000      0.0000
                z      -1.3663      0.0000     -0.0000
   9 O     core x      -8.3726      1.2161     -4.1880
     X          y       1.2161      5.9311      2.5860
                z      -4.1880      2.5860      0.0552
                x       0.8983      5.7476      2.2499
     Y          y       5.7476      3.3304      4.1880
                z       2.2499      4.1880     -0.0957
                x      -2.6449      1.5270      0.6831
     Z          y       1.5270      2.6449     -1.1832
                z       0.6831     -1.1832      0.0000
  10 O     core x      -8.3726     -1.2161      4.1880
     X          y      -1.2161      5.9311      2.5860
                z       4.1880      2.5860      0.0552
                x      -0.8983      5.7476      2.2499
     Y          y       5.7476     -3.3304     -4.1880
                z       2.2499     -4.1880      0.0957
                x       2.6449      1.5270      0.6831
     Z          y       1.5270     -2.6449      1.1832
                z       0.6831      1.1832      0.0000

  Elastic Constant Matrix: (Units=GPa)

  Indices      1         2         3         4         5         6
       1    607.5122  322.9448  182.3240   44.5916    0.0000    0.0000
       2    322.9448  607.5122  182.3240  -44.5916    0.0000    0.0000
       3    182.3240  182.3240  606.3490    0.0000   -0.0000    0.0000
       4     44.5916  -44.5916    0.0000   95.6295    0.0000    0.0000
       5      0.0000    0.0000   -0.0000    0.0000   95.6295   44.5916
       6      0.0000    0.0000    0.0000    0.0000   44.5916  142.2837

  Elastic Compliance Matrix: (Units=1/GPa)

  Indices      1         2         3         4         5         6
       1    0.002667 -0.001449 -0.000366 -0.001919  0.000000 -0.000000
       2   -0.001449  0.002667 -0.000366  0.001919 -0.000000  0.000000
       3   -0.000366 -0.000366  0.001870 -0.000000  0.000000 -0.000000
       4   -0.001919  0.001919 -0.000000  0.012247 -0.000000  0.000000
       5    0.000000 -0.000000  0.000000 -0.000000  0.012247 -0.003838
       6   -0.000000  0.000000 -0.000000  0.000000 -0.003838  0.008231

  Mechanical properties :

  Convention :                    Reuss         Voigt         Hill
  Bulk  Modulus (GPa)     =     352.01360     355.17322     353.59341
  Shear Modulus (GPa)     =     110.52804     142.29389     126.41097
  Velocity S-wave (km/s)  =       5.33705       6.05561       5.70765
  Velocity P-wave (km/s)  =      11.34442      11.85012      11.60003
  Compressibility (1/GPa) =    0.00284080
  Stress axis :                     x             y             z
  Youngs Moduli (GPa)     =     374.96404     374.96404     534.89590
  Poissons Ratio (x)      =                     0.54318       0.19595
  Poissons Ratio (y)      =       0.54318                     0.19595
  Poissons Ratio (z)      =       0.13736       0.13736

  Piezoelectric Strain Matrix: (Units=C/m**2)

  Indices      1         2         3         4         5         6
       x     0.00000  -0.00000   0.00000  -0.00000  -0.00000  -0.00000
       y     0.00000  -0.00000   0.00000  -0.00000   0.00000   0.00000
       z     0.00000  -0.00000  -0.00000  -0.00000  -0.00000   0.00000

  Piezoelectric Stress Matrix: (Units=10**-11 C/N)

  Indices      1         2         3         4         5         6
       x     0.00000  -0.00000   0.00000  -0.00000   0.00000  -0.00000
       y     0.00000  -0.00000   0.00000  -0.00000  -0.00000   0.00000
       z     0.00000  -0.00000  -0.00000  -0.00000  -0.00000   0.00000

  Static dielectric constant tensor :

              x         y         z
       x    11.29306  -0.00000   0.00000
       y    -0.00000  11.29306  -0.00000
       z     0.00000  -0.00000  16.36466

  High frequency dielectric constant tensor :

              x         y         z
       x     5.63011  -0.00000   0.00000
       y    -0.00000   5.63011  -0.00000
       z     0.00000  -0.00000   6.08934

  Static refractive indices :

    1 =    3.36052      2 =    3.36052      3 =    4.04533

  High frequency refractive indices :

    1 =    2.37278      2 =    2.37278      3 =    2.46766

  Phonon Calculation :

  Directions for Raman intensities: Type  =  Cartesian
                                    In    =  1.00000  1.00000  1.00000
                                    Out   =  1.00000  1.00000  1.00000

  Number of k points for this configuration =        1

  Frequencies (cm-1) and IR/Raman Intensities :

  Frequency       0.0000    0.0000    0.0000  241.0787  279.8720  279.8720
  IR Intensity    0.0000    0.0000    0.0000    0.0000    0.0000    0.0000
     in X         0.0000    0.0000    0.0000    0.0000    0.0000    0.0000
     in Y         0.0000    0.0000    0.0000    0.0000    0.0000    0.0000
     in Z         0.0000    0.0000    0.0000    0.0000    0.0000    0.0000
  Raman Intsty    0.0000    0.0000    0.0000    0.0000   42.5068  599.5187

[...]

  Frequency     525.7202  556.6880  556.6880  605.3103  605.3103  659.5585
  IR Intensity    0.0000    0.0000    0.0000    0.0000    0.0000    0.0000
     in X         0.0000    0.0000    0.0000    0.0000    0.0000    0.0000
     in Y         0.0000    0.0000    0.0000    0.0000    0.0000    0.0000
     in Z         0.0000    0.0000    0.0000    0.0000    0.0000    0.0000
  Raman Intsty    0.0000  369.7133  829.7713 1741.6391  918.2688    0.0000

  Phonon properties (per mole of unit cells): Temperature =      0.000 K
  Zero point energy             =        0.720408 eV

  Phonon density of states :

 Frequency (cm-1) Density of States
    0.00000 |************************************************************  0.100
   10.30560 |                                                              0.000
   20.61121 |                                                              0.000
   30.91681 |                                                              0.000
   41.22241 |                                                              0.000
   51.52801 |                                                              0.000
   61.83362 |                                                              0.000
   72.13922 |                                                              0.000
   82.44482 |                                                              0.000
   92.75042 |                                                              0.000
  103.05603 |                                                              0.000
  113.36163 |                                                              0.000
  123.66723 |                                                              0.000
  133.97283 |                                                              0.000
  144.27844 |                                                              0.000
  154.58404 |                                                              0.000
  164.88964 |                                                              0.000
  175.19525 |                                                              0.000
  185.50085 |                                                              0.000
  195.80645 |                                                              0.000
  206.11205 |                                                              0.000
  216.41766 |                                                              0.000
  226.72326 |                                                              0.000
  237.02886 |********************                                          0.033
  247.33446 |                                                              0.000
  257.64007 |                                                              0.000
  267.94567 |                                                              0.000
  278.25127 |****************************************                      0.067
  288.55687 |                                                              0.000
  298.86248 |********************                                          0.033
  309.16808 |****************************************                      0.067
  319.47368 |                                                              0.000
  329.77929 |                                                              0.000
  340.08489 |                                                              0.000
  350.39049 |                                                              0.000
  360.69609 |************************************************************  0.100
  371.00170 |************************************************************  0.100
  381.30730 |                                                              0.000
  391.61290 |                                                              0.000
  401.91850 |                                                              0.000
  412.22411 |****************************************                      0.067
  422.52971 |                                                              0.000
  432.83531 |                                                              0.000
  443.14091 |                                                              0.000
  453.44652 |****************************************                      0.067
  463.75212 |****************************************                      0.067
  474.05772 |********************                                          0.033
  484.36332 |                                                              0.000
  494.66893 |****************************************                      0.067
  504.97453 |                                                              0.000
  515.28013 |                                                              0.000
  525.58574 |********************                                          0.033
  535.89134 |                                                              0.000
  546.19694 |                                                              0.000
  556.50254 |****************************************                      0.067
  566.80815 |                                                              0.000
  577.11375 |                                                              0.000
  587.41935 |                                                              0.000
  597.72495 |****************************************                      0.067
  608.03056 |                                                              0.000
  618.33616 |                                                              0.000
  628.64176 |                                                              0.000
  638.94736 |                                                              0.000
  649.25297 |********************                                          0.033

  Phonon density of states written as Al.dens

  Time to end of optimisation =       0.1046 seconds

  Electrostatic potential at atomic positions :

 Site  Atomic      Potential                Derivatives (V/Angs)
 No.   Label          (V)                 x           y           z
     1 Al    c    -36.426593          -0.000000   -0.000000    0.158184
     2 O     c     26.014296           0.318980    0.000000   -0.000000
     3 Al    s    -36.426591          -0.000000   -0.000000    0.158199
     4 O     s     26.016899           0.334003    0.000000   -0.000000

  Total time to end of atomic site potentials =       0.1052 s

  Timing analysis for GULP :

  Task / Subroutine                                          Time (Seconds)
  Calculation of reciprocal space energy and derivatives          0.0045
  Calculation of reciprocal space energy using symmetry           0.0019
  Calculation of real space energy and derivatives                0.0290
  Calculation of real space energy using symmetry                 0.0539
  Calculation of site potentials                                  0.0005
  Calculation of phonons                                          0.0120
  Calculation of matrix diagonalisation                           0.0001
  Symmetry generation of equivalent positions                     0.0005

  Job Finished at 19:23.39 25th July       2022