  Job Started  at 19:25.24 27th July       2022

  Number of CPUs =     1

  Total number of configurations input =      1

*  Input for Configuration =   1                                               *

  Formula = MgO

  Number of irreducible atoms/shells =       4

  Total number atoms/shells =       4

  Dimensionality = 3               :  Bulk

  Symmetry :

  Crystal family                   :  Cubic
  Crystal class  (Groth - 1921)    :  Cubic Hexakisoctahedral

  Space group (centrosymmetric)    :  F M 3 M

  Patterson group                  :  F m -3 m

  Cartesian lattice vectors (Angstroms) :

        0.000000    2.103023    2.103023
        2.103023    0.000000    2.103023
        2.103023    2.103023    0.000000

  Primitive cell parameters :            Full cell parameters :

  a =   2.9741    alpha =  60.0000       a =   4.2060    alpha =  90.0000
  b =   2.9741    beta  =  60.0000       b =   4.2060    beta  =  90.0000
  c =   2.9741    gamma =  60.0000       c =   4.2060    gamma =  90.0000

  Initial volumes (Angstroms**3):

  Primitive cell =          18.602104    Full cell =          74.408415

  Shrinking factors =     30    30    30

  Temperature of configuration =   0.00     K

  Pressure of configuration =         0.000 GPa

  Fractional coordinates of asymmetric unit :

   No.  Atomic       x           y          z         Charge      Occupancy
        Label      (Frac)      (Frac)     (Frac)        (e)         (Frac)
      1 Mg    c    0.000000    0.000000    0.000000     1.58000    1.000000
      2 O     c    0.500000    0.500000    0.500000     0.51300    1.000000
      3 Mg    s    0.000000    0.000000    0.000000     0.42000    1.000000
      4 O     s    0.500000    0.500000    0.500000    -2.51300    1.000000

  Brillouin zone sampling points :

  Point number          x          y          z            Weight
        1           0.016667   0.016667   0.016667     0.00003704
        2           0.050000   0.016667   0.016667     0.00011111
        3           0.050000   0.050000   0.016667     0.00011111
        4           0.050000   0.050000   0.050000     0.00003704
        5           0.083333   0.016667   0.016667     0.00011111
        6           0.083333   0.050000   0.016667     0.00022222
        7           0.083333   0.050000   0.050000     0.00011111
        8           0.083333   0.083333   0.016667     0.00011111
        9           0.083333   0.083333   0.050000     0.00011111
       10           0.083333   0.083333   0.083333     0.00003704
       11           0.116667   0.016667   0.016667     0.00011111
       12           0.116667   0.050000   0.016667     0.00022222
       13           0.116667   0.050000   0.050000     0.00011111
       14           0.116667   0.083333   0.016667     0.00022222
       15           0.116667   0.083333   0.050000     0.00022222
       16           0.116667   0.083333   0.083333     0.00011111
       17           0.116667   0.116667   0.016667     0.00011111
       18           0.116667   0.116667   0.050000     0.00011111
       19           0.116667   0.116667   0.083333     0.00011111
       20           0.116667   0.116667   0.116667     0.00003704
       21           0.150000   0.016667   0.016667     0.00011111
       22           0.150000   0.050000   0.016667     0.00022222
       23           0.150000   0.050000   0.050000     0.00011111
       24           0.150000   0.083333   0.016667     0.00022222
       25           0.150000   0.083333   0.050000     0.00022222
       26           0.150000   0.083333   0.083333     0.00011111
       27           0.150000   0.116667   0.016667     0.00022222
       28           0.150000   0.116667   0.050000     0.00022222
       29           0.150000   0.116667   0.083333     0.00022222
       30           0.150000   0.116667   0.116667     0.00011111
       31           0.150000   0.150000   0.016667     0.00011111
       32           0.150000   0.150000   0.050000     0.00011111
       33           0.150000   0.150000   0.083333     0.00011111
       34           0.150000   0.150000   0.116667     0.00011111
       35           0.150000   0.150000   0.150000     0.00003704
       36           0.183333   0.016667   0.016667     0.00011111
       37           0.183333   0.050000   0.016667     0.00022222
       38           0.183333   0.050000   0.050000     0.00011111
       39           0.183333   0.083333   0.016667     0.00022222
       40           0.183333   0.083333   0.050000     0.00022222
       41           0.183333   0.083333   0.083333     0.00011111
       42           0.183333   0.116667   0.016667     0.00022222
       43           0.183333   0.116667   0.050000     0.00022222
       44           0.183333   0.116667   0.083333     0.00022222
       45           0.183333   0.116667   0.116667     0.00011111
       46           0.183333   0.150000   0.016667     0.00022222
       47           0.183333   0.150000   0.050000     0.00022222
       48           0.183333   0.150000   0.083333     0.00022222
       49           0.183333   0.150000   0.116667     0.00022222
       50           0.183333   0.150000   0.150000     0.00011111
       51           0.183333   0.183333   0.016667     0.00011111
       52           0.183333   0.183333   0.050000     0.00011111
       53           0.183333   0.183333   0.083333     0.00011111
       54           0.183333   0.183333   0.116667     0.00011111
       55           0.183333   0.183333   0.150000     0.00011111
       56           0.183333   0.183333   0.183333     0.00003704
       57           0.216667   0.016667   0.016667     0.00011111
       58           0.216667   0.050000   0.016667     0.00022222
       59           0.216667   0.050000   0.050000     0.00011111
       60           0.216667   0.083333   0.016667     0.00022222
[...]
     4946           0.983333   0.983333   0.516667     0.00011111
     4947           0.983333   0.983333   0.550000     0.00011111
     4948           0.983333   0.983333   0.583333     0.00011111
     4949           0.983333   0.983333   0.616667     0.00011111
     4950           0.983333   0.983333   0.650000     0.00011111
     4951           0.983333   0.983333   0.683333     0.00011111
     4952           0.983333   0.983333   0.716667     0.00011111
     4953           0.983333   0.983333   0.750000     0.00011111
     4954           0.983333   0.983333   0.783333     0.00011111
     4955           0.983333   0.983333   0.816667     0.00011111
     4956           0.983333   0.983333   0.850000     0.00011111
     4957           0.983333   0.983333   0.883333     0.00011111
     4958           0.983333   0.983333   0.916667     0.00011111
     4959           0.983333   0.983333   0.950000     0.00011111
     4960           0.983333   0.983333   0.983333     0.00003704

*  General input information                                                   *

  Species output for all configurations :

  Species    Type    Atomic    Atomic    Charge       Radii (Angs)     Library
                     Number     Mass       (e)     Cova   Ionic  VDW   Symbol
    Mg       Core       12      24.31   1.580000   1.100  0.000  1.640
    Mg       Shell      12       0.00   0.420000   1.100  0.000  1.640
    O        Core        8      16.00   0.513000   0.730  0.000  1.360
    O        Shell       8       0.00  -2.513000   0.730  0.000  1.360

  Lattice summation method               =    Ewald          (3-D)
                                         =    Parry          (2-D)
                                         =    Saunders et al (1-D)
  Accuracy factor for lattice sums       =   12.000

  Analytic derivatives to be used

  Time limit = Infinity

  Maximum range for interatomic potentials =    100000.000000 Angstroms

  General interatomic potentials :

Atom  Types   Potential      Parameter       Value         Units   Cutoffs(Ang)
  1     2                                                            Min /  Max
O    s Mg   s Buckingham    Buckingham A     2457.2430    eV        0.000 10.000
                            Buckingham rho  0.26100000    Ang
                            Buckingham C     0.0000000    eV*Ang^6
O    s O    s Buckingham    Buckingham A     25.410000    eV        0.000 12.000
                            Buckingham rho  0.69370000    Ang
                            Buckingham C     32.320000    eV*Ang^6
Mg   c Mg   s Spring (c-s)  Spring k 2       349.95000    eV*Ang^-2 0.000  0.800
                            Spring k 4       0.0000000    eV*Ang^-4
O    c O    s Spring (c-s)  Spring k 2       20.530000    eV*Ang^-2 0.000  0.800
                            Spring k 4       0.0000000    eV*Ang^-4

*  Output for configuration   1                                                *

  Components of energy :

  Interatomic potentials     =           6.86813576 eV
  Monopole - monopole (real) =          -3.84127261 eV
  Monopole - monopole (recip)=         -44.02222285 eV
  Monopole - monopole (total)=         -47.86349546 eV
  Total lattice energy :
    Primitive unit cell      =         -40.99535970 eV
    Non-primitive unit cell  =        -163.98143879 eV
  Total lattice energy (in kJmol-1):
    Primitive unit cell      =           -3955.4255 kJ/(mole unit cells)
    Non-primitive unit cell  =          -15821.7022 kJ/(mole unit cells)

  Born effective charge tensors :

  Atom             x           y             z
    1 Mg    x       1.9228     -0.0000      0.0000
            y      -0.0000      1.9228      0.0000
            z       0.0000      0.0000      1.9228
    2 O     x      -1.9228      0.0000     -0.0000
            y       0.0000     -1.9228     -0.0000
            z      -0.0000     -0.0000     -1.9228

  Elastic Constant Matrix: (Units=GPa)

  Indices      1         2         3         4         5         6
       1    334.8166  202.5492  202.5492   -0.0000    0.0000   -0.0000
       2    202.5492  334.8166  202.5492   -0.0000   -0.0000    0.0000
       3    202.5492  202.5492  334.8166   -0.0000    0.0000   -0.0000
       4     -0.0000   -0.0000   -0.0000  202.5493   -0.0000    0.0000
       5      0.0000   -0.0000    0.0000   -0.0000  202.5493    0.0000
       6     -0.0000    0.0000   -0.0000    0.0000    0.0000  202.5493

  Elastic Compliance Matrix: (Units=1/GPa)

  Indices      1         2         3         4         5         6
       1    0.005491 -0.002070 -0.002070  0.000000 -0.000000  0.000000
       2   -0.002070  0.005491 -0.002070  0.000000  0.000000 -0.000000
       3   -0.002070 -0.002070  0.005491  0.000000 -0.000000  0.000000
       4    0.000000  0.000000  0.000000  0.004937  0.000000 -0.000000
       5   -0.000000  0.000000 -0.000000  0.000000  0.004937 -0.000000
       6    0.000000 -0.000000  0.000000 -0.000000 -0.000000  0.004937

  Mechanical properties :

  Convention :                    Reuss         Voigt         Hill
  Bulk  Modulus (GPa)     =     246.63838     246.63838     246.63838
  Shear Modulus (GPa)     =     110.98046     147.98307     129.48177
  Velocity S-wave (km/s)  =       5.55354       6.41287       5.99861
  Velocity P-wave (km/s)  =      10.47206      11.10742      10.79441
[...]
   95.00000 |*                                                             0.000
   96.00000 |*                                                             0.000
   97.00000 |*                                                             0.000
   98.00000 |*                                                             0.000
   99.00000 |*                                                             0.000
  100.00000 |*                                                             0.000
  101.00000 |*                                                             0.000
  102.00000 |*                                                             0.000
  103.00000 |*                                                             0.000
  104.00000 |*                                                             0.000
  105.00000 |*                                                             0.000
  106.00000 |*                                                             0.000
  107.00000 |*                                                             0.000
  108.00000 |*                                                             0.000
  109.00000 |*                                                             0.000
  110.00000 |*                                                             0.000
  111.00000 |*                                                             0.000
  112.00000 |*                                                             0.000
  113.00000 |*                                                             0.000
  114.00000 |*                                                             0.000
  115.00000 |*                                                             0.000
  116.00000 |**                                                            0.000
  117.00000 |**                                                            0.000
  118.00000 |**                                                            0.000
  119.00000 |**                                                            0.000
  120.00000 |**                                                            0.000
  121.00000 |**                                                            0.000
  122.00000 |**                                                            0.000
  123.00000 |**                                                            0.000
  124.00000 |**                                                            0.000
  125.00000 |**                                                            0.000
  126.00000 |**                                                            0.000
  127.00000 |**                                                            0.000
  128.00000 |**                                                            0.000
  129.00000 |**                                                            0.000
  130.00000 |**                                                            0.000
  131.00000 |**                                                            0.000
  132.00000 |**                                                            0.000
  133.00000 |**                                                            0.000
  134.00000 |**                                                            0.000
  135.00000 |**                                                            0.000
  136.00000 |**                                                            0.000
  137.00000 |**                                                            0.000
  138.00000 |***                                                           0.000
  139.00000 |***                                                           0.000
  140.00000 |***                                                           0.000
  141.00000 |***                                                           0.000
  142.00000 |***                                                           0.000
  143.00000 |***                                                           0.000
  144.00000 |***                                                           0.000
  145.00000 |***                                                           0.000
  146.00000 |***                                                           0.000
  147.00000 |***                                                           0.000
  148.00000 |***                                                           0.000
  149.00000 |***                                                           0.000
  150.00000 |***                                                           0.000
  151.00000 |***                                                           0.000
  152.00000 |***                                                           0.000
  153.00000 |***                                                           0.000
  154.00000 |***                                                           0.000
  155.00000 |****                                                          0.000
  156.00000 |****                                                          0.000
  157.00000 |****                                                          0.000
  158.00000 |****                                                          0.000
  159.00000 |****                                                          0.000
  160.00000 |****                                                          0.000
  161.00000 |****                                                          0.000
  162.00000 |****                                                          0.000
  163.00000 |****                                                          0.000
  164.00000 |****                                                          0.000
  165.00000 |****                                                          0.001
  166.00000 |****                                                          0.001
  167.00000 |****                                                          0.001
  168.00000 |****                                                          0.001
  169.00000 |*****                                                         0.001
  170.00000 |*****                                                         0.001
  171.00000 |*****                                                         0.001
  172.00000 |*****                                                         0.001
  173.00000 |*****                                                         0.001
  174.00000 |*****                                                         0.001
  175.00000 |*****                                                         0.001
  176.00000 |*****                                                         0.001
  177.00000 |*****                                                         0.001
  178.00000 |*****                                                         0.001
  179.00000 |*****                                                         0.001
  180.00000 |*****                                                         0.001
  181.00000 |******                                                        0.001
  182.00000 |******                                                        0.001
  183.00000 |******                                                        0.001
  184.00000 |******                                                        0.001
  185.00000 |******                                                        0.001
  186.00000 |******                                                        0.001
  187.00000 |******                                                        0.001
  188.00000 |******                                                        0.001
  189.00000 |******                                                        0.001
  190.00000 |*******                                                       0.001
  191.00000 |*******                                                       0.001
  192.00000 |*******                                                       0.001
  193.00000 |*******                                                       0.001
  194.00000 |*******                                                       0.001
  195.00000 |*******                                                       0.001
  196.00000 |*******                                                       0.001
  197.00000 |*******                                                       0.001
[...]
  600.00000 |****                                                          0.000
  601.00000 |****                                                          0.000
  602.00000 |***                                                           0.000
  603.00000 |***                                                           0.000
  604.00000 |***                                                           0.000
  605.00000 |***                                                           0.000
  606.00000 |***                                                           0.000
  607.00000 |***                                                           0.000
  608.00000 |***                                                           0.000
  609.00000 |***                                                           0.000
  610.00000 |***                                                           0.000
  611.00000 |***                                                           0.000
  612.00000 |***                                                           0.000
  613.00000 |***                                                           0.000
  614.00000 |***                                                           0.000
  615.00000 |**                                                            0.000
  616.00000 |**                                                            0.000
  617.00000 |**                                                            0.000
  618.00000 |**                                                            0.000
  619.00000 |**                                                            0.000
  620.00000 |**                                                            0.000
  621.00000 |**                                                            0.000
  622.00000 |**                                                            0.000
  623.00000 |**                                                            0.000
  624.00000 |**                                                            0.000
  625.00000 |**                                                            0.000
  626.00000 |**                                                            0.000
  627.00000 |**                                                            0.000
  628.00000 |**                                                            0.000
  629.00000 |**                                                            0.000
  630.00000 |**                                                            0.000
  631.00000 |*                                                             0.000
  632.00000 |*                                                             0.000
  633.00000 |*                                                             0.000
  634.00000 |*                                                             0.000
  635.00000 |*                                                             0.000
  636.00000 |*                                                             0.000
  637.00000 |*                                                             0.000
  638.00000 |*                                                             0.000
  639.00000 |*                                                             0.000
  640.00000 |*                                                             0.000
  641.00000 |*                                                             0.000
  642.00000 |*                                                             0.000
  643.00000 |*                                                             0.000
  644.00000 |*                                                             0.000
  645.00000 |*                                                             0.000
  646.00000 |*                                                             0.000
  647.00000 |*                                                             0.000
  648.00000 |*                                                             0.000
  649.00000 |                                                              0.000
  650.00000 |                                                              0.000
  651.00000 |                                                              0.000
  652.00000 |                                                              0.000
  653.00000 |                                                              0.000
  654.00000 |                                                              0.000
  655.00000 |                                                              0.000
  656.00000 |                                                              0.000
  657.00000 |                                                              0.000
  658.00000 |                                                              0.000
  659.00000 |                                                              0.000
  660.00000 |                                                              0.000
  661.00000 |                                                              0.000
  662.00000 |                                                              0.000
  663.00000 |                                                              0.000
  664.00000 |                                                              0.000
  665.00000 |                                                              0.000
  666.00000 |                                                              0.000
  667.00000 |                                                              0.000
  668.00000 |                                                              0.000
  669.00000 |                                                              0.000
  670.00000 |                                                              0.000
  671.00000 |                                                              0.000
  672.00000 |                                                              0.000
  673.00000 |                                                              0.000
  674.00000 |                                                              0.000
  675.00000 |                                                              0.000
  676.00000 |                                                              0.000
  677.00000 |                                                              0.000
  678.00000 |                                                              0.000
  679.00000 |                                                              0.000
  680.00000 |                                                              0.000
  681.00000 |                                                              0.000
  682.00000 |                                                              0.000
  683.00000 |                                                              0.000
  684.00000 |                                                              0.000
  685.00000 |                                                              0.000
  686.00000 |                                                              0.000
  687.00000 |                                                              0.000
  688.00000 |                                                              0.000
  689.00000 |                                                              0.000
  690.00000 |                                                              0.000
  691.00000 |                                                              0.000
  692.00000 |                                                              0.000
  693.00000 |                                                              0.000

  Phonon density of states written as DOS.dens

  Time to end of properties =       3.7238 seconds

  Timing analysis for GULP :

  Task / Subroutine                                          Time (Seconds)
  Calculation of reciprocal space energy and derivatives          0.5588
  Calculation of real space energy and derivatives                2.6429
  Calculation of phonons                                          3.3260
  Calculation of matrix diagonalisation                           0.0195
  Calculation of matrix inversion                                 0.0080
  Disk read/write operations to scratch files                     0.0033
  Symmetry generation of equivalent positions                     0.0019

  Job Finished at 19:25.27 27th July       2022