  Job Started  at 17:50.57 30th July       2022

  Number of CPUs =     1

  Total number of configurations input =      1

*  Input for Configuration =   1                                               *

  Formula = Ar512

  Number of irreducible atoms/shells =     512

  Total number atoms/shells =     512

  Dimensionality = 3               :  Bulk

  Cartesian lattice vectors (Angstroms) :

       29.130000    0.000000    0.000000
        0.000000   29.130000    0.000000
        0.000000    0.000000   29.130000

  Cell parameters (Angstroms/Degrees):

  a =      29.1300    alpha =  90.0000
  b =      29.1300    beta  =  90.0000
  c =      29.1300    gamma =  90.0000

  Initial cell volume =       24718.462497 Angs**3

  Temperature of configuration =   60.0     K

  Pressure of configuration =         0.000 GPa

  Fractional coordinates of asymmetric unit :

   No.  Atomic       x           y          z         Charge      Occupancy
        Label      (Frac)      (Frac)     (Frac)        (e)         (Frac)
      1 Ar1   c    0.000000 *  0.000000 *  0.000000 *   0.00000    1.000000
      2 Ar1   c    0.000000 *  0.000000 *  0.124991 *   0.00000    1.000000
      3 Ar1   c    0.000000 *  0.000000 *  0.250017 *   0.00000    1.000000
      4 Ar1   c    0.000000 *  0.000000 *  0.375009 *   0.00000    1.000000
      5 Ar1   c    0.000000 *  0.000000 *  0.500000 *   0.00000    1.000000
      6 Ar1   c    0.000000 *  0.000000 *  0.624991 *   0.00000    1.000000
      7 Ar1   c    0.000000 *  0.000000 *  0.750017 *   0.00000    1.000000
      8 Ar1   c    0.000000 *  0.000000 *  0.875009 *   0.00000    1.000000
      9 Ar1   c    0.000000 *  0.124991 *  0.000000 *   0.00000    1.000000
     10 Ar1   c    0.000000 *  0.124991 *  0.124991 *   0.00000    1.000000
     11 Ar1   c    0.000000 *  0.124991 *  0.250017 *   0.00000    1.000000
     12 Ar1   c    0.000000 *  0.124991 *  0.375009 *   0.00000    1.000000
     13 Ar1   c    0.000000 *  0.124991 *  0.500000 *   0.00000    1.000000
     14 Ar1   c    0.000000 *  0.124991 *  0.624991 *   0.00000    1.000000
     15 Ar1   c    0.000000 *  0.124991 *  0.750017 *   0.00000    1.000000
     16 Ar1   c    0.000000 *  0.124991 *  0.875009 *   0.00000    1.000000
     17 Ar1   c    0.000000 *  0.250017 *  0.000000 *   0.00000    1.000000
     18 Ar1   c    0.000000 *  0.250017 *  0.124991 *   0.00000    1.000000
     19 Ar1   c    0.000000 *  0.250017 *  0.250017 *   0.00000    1.000000
     20 Ar1   c    0.000000 *  0.250017 *  0.375009 *   0.00000    1.000000
     21 Ar1   c    0.000000 *  0.250017 *  0.500000 *   0.00000    1.000000
     22 Ar1   c    0.000000 *  0.250017 *  0.624991 *   0.00000    1.000000
     23 Ar1   c    0.000000 *  0.250017 *  0.750017 *   0.00000    1.000000
     24 Ar1   c    0.000000 *  0.250017 *  0.875009 *   0.00000    1.000000
     25 Ar1   c    0.000000 *  0.375009 *  0.000000 *   0.00000    1.000000
     26 Ar1   c    0.000000 *  0.375009 *  0.124991 *   0.00000    1.000000
     27 Ar1   c    0.000000 *  0.375009 *  0.250017 *   0.00000    1.000000
     28 Ar1   c    0.000000 *  0.375009 *  0.375009 *   0.00000    1.000000
     29 Ar1   c    0.000000 *  0.375009 *  0.500000 *   0.00000    1.000000
     30 Ar1   c    0.000000 *  0.375009 *  0.624991 *   0.00000    1.000000
     31 Ar1   c    0.000000 *  0.375009 *  0.750017 *   0.00000    1.000000
     32 Ar1   c    0.000000 *  0.375009 *  0.875009 *   0.00000    1.000000
     33 Ar1   c    0.000000 *  0.500000 *  0.000000 *   0.00000    1.000000
     34 Ar1   c    0.000000 *  0.500000 *  0.124991 *   0.00000    1.000000
     35 Ar1   c    0.000000 *  0.500000 *  0.250017 *   0.00000    1.000000
     36 Ar1   c    0.000000 *  0.500000 *  0.375009 *   0.00000    1.000000
     37 Ar1   c    0.000000 *  0.500000 *  0.500000 *   0.00000    1.000000
     38 Ar1   c    0.000000 *  0.500000 *  0.624991 *   0.00000    1.000000
     39 Ar1   c    0.000000 *  0.500000 *  0.750017 *   0.00000    1.000000
     40 Ar1   c    0.000000 *  0.500000 *  0.875009 *   0.00000    1.000000
     41 Ar1   c    0.000000 *  0.624991 *  0.000000 *   0.00000    1.000000
     42 Ar1   c    0.000000 *  0.624991 *  0.124991 *   0.00000    1.000000
     43 Ar1   c    0.000000 *  0.624991 *  0.250017 *   0.00000    1.000000
     44 Ar1   c    0.000000 *  0.624991 *  0.375009 *   0.00000    1.000000
     45 Ar1   c    0.000000 *  0.624991 *  0.500000 *   0.00000    1.000000
     46 Ar1   c    0.000000 *  0.624991 *  0.624991 *   0.00000    1.000000
     47 Ar1   c    0.000000 *  0.624991 *  0.750017 *   0.00000    1.000000
     48 Ar1   c    0.000000 *  0.624991 *  0.875009 *   0.00000    1.000000
     49 Ar1   c    0.000000 *  0.750017 *  0.000000 *   0.00000    1.000000
     50 Ar1   c    0.000000 *  0.750017 *  0.124991 *   0.00000    1.000000
     51 Ar1   c    0.000000 *  0.750017 *  0.250017 *   0.00000    1.000000
     52 Ar1   c    0.000000 *  0.750017 *  0.375009 *   0.00000    1.000000
     53 Ar1   c    0.000000 *  0.750017 *  0.500000 *   0.00000    1.000000
     54 Ar1   c    0.000000 *  0.750017 *  0.624991 *   0.00000    1.000000
     55 Ar1   c    0.000000 *  0.750017 *  0.750017 *   0.00000    1.000000
     56 Ar1   c    0.000000 *  0.750017 *  0.875009 *   0.00000    1.000000
     57 Ar1   c    0.000000 *  0.875009 *  0.000000 *   0.00000    1.000000
     58 Ar1   c    0.000000 *  0.875009 *  0.124991 *   0.00000    1.000000
     59 Ar1   c    0.000000 *  0.875009 *  0.250017 *   0.00000    1.000000
     60 Ar1   c    0.000000 *  0.875009 *  0.375009 *   0.00000    1.000000
[...]
    498 Ar1   c    0.875009 *  0.750017 *  0.124991 *   0.00000    1.000000
    499 Ar1   c    0.875009 *  0.750017 *  0.250017 *   0.00000    1.000000
    500 Ar1   c    0.875009 *  0.750017 *  0.375009 *   0.00000    1.000000
    501 Ar1   c    0.875009 *  0.750017 *  0.500000 *   0.00000    1.000000
    502 Ar1   c    0.875009 *  0.750017 *  0.624991 *   0.00000    1.000000
    503 Ar1   c    0.875009 *  0.750017 *  0.750017 *   0.00000    1.000000
    504 Ar1   c    0.875009 *  0.750017 *  0.875009 *   0.00000    1.000000
    505 Ar1   c    0.875009 *  0.875009 *  0.000000 *   0.00000    1.000000
    506 Ar1   c    0.875009 *  0.875009 *  0.124991 *   0.00000    1.000000
    507 Ar1   c    0.875009 *  0.875009 *  0.250017 *   0.00000    1.000000
    508 Ar1   c    0.875009 *  0.875009 *  0.375009 *   0.00000    1.000000
    509 Ar1   c    0.875009 *  0.875009 *  0.500000 *   0.00000    1.000000
    510 Ar1   c    0.875009 *  0.875009 *  0.624991 *   0.00000    1.000000
    511 Ar1   c    0.875009 *  0.875009 *  0.750017 *   0.00000    1.000000
    512 Ar1   c    0.875009 *  0.875009 *  0.875009 *   0.00000    1.000000

  Molecule list generated from bond lengths :

  Total number of molecules =     0

*  General input information                                                   *

  Species output for all configurations :

  Species    Type    Atomic    Atomic    Charge       Radii (Angs)     Library
                     Number     Mass       (e)     Cova   Ionic  VDW   Symbol
    Ar1      Core       18      39.95   0.000000   0.000  0.000  0.000 Ar4+4

  Universal Force Field (UFF) species output:

  Species    Type    Radius    Theta    Distance    Energy     Zeta     Zeff
                     (Ang)   (degrees)   (Ang)       (eV)               (e)
    Ar1      Core    1.0320    90.000     3.8680    0.0080   15.7630   0.2994

  Lattice summation method               =    Ewald          (3-D)
                                         =    Parry          (2-D)
                                         =    Saunders et al (1-D)
  Accuracy factor for lattice sums       =   12.000

  Analytic derivatives to be used

  Time limit = Infinity

  Maximum range for interatomic potentials =    100000.000000 Angstroms

  General interatomic potentials :

Atom  Types   Potential      Parameter       Value         Units   Cutoffs(Ang)
  1     2                                                            Min /  Max
Ar1  c Ar1  c Lennard       Lennard-Jones A  89979.376    eV*Ang^m  3Bond 10.000
                            Lennard-Jones B  53.734620    eV*Ang^n
                            Exponent m        12          None
                            Exponent n         6          None

  Intramolecular potentials :

Atom  Types   Potential      Parameter       Value         Units   Cutoffs(Ang)
  1     2                                                            Min /  Max
Ar1  c Ar1  c Harmonic      Harmonic k2     0.29359911    eV*Ang^-2 0.000 1 Bond
                            Harmonic r0      2.0640000    Ang
                            Harmonic k3      0.0000000    eV*Ang^-3
                            Harmonic k4      0.0000000    eV*Ang^-4
                                                                    single   cyc

  Intramolecular Three-body potentials :

  Atoms       Potential      Parameter       Value         Units   Cutoffs(Ang)
  1 / 2 / 3                                                          Min /  Max
Ar1   core    Linear 3-body Three-body cnst 0.97315276E-02eV        0.000 1 Bond
Ar1   core                  Three-body sign -1.0000000    None      0.000 1 Bond
Ar1   core                                                          0.000

*  Output for configuration   1                                                *

  Components of energy :

  Interatomic potentials     =         -22.05799517 eV
  Three-body potentials      =           0.00000000 eV
  Monopole - monopole (real) =           0.00000000 eV
  Monopole - monopole (recip)=           0.00000000 eV
  Monopole - monopole (total)=           0.00000000 eV
  Total lattice energy       =         -22.05799517 eV
  Total lattice energy       =           -2128.2593 kJ/(mole unit cells)

  MSI Archive (version 3) open for Movie as Ar_rho_0.0207125_N=512_cubic_298_TS=10_3D.arc

  Electrostatic potential at atomic positions :

 Site  Atomic      Potential                Derivatives (V/Angs)
 No.   Label          (V)                 x           y           z
     1 Ar1   c      0.000000           0.000000    0.000000    0.000000
     2 Ar1   c      0.000000           0.000000    0.000000    0.000000
     3 Ar1   c      0.000000           0.000000    0.000000    0.000000
     4 Ar1   c      0.000000           0.000000    0.000000    0.000000
     5 Ar1   c      0.000000           0.000000    0.000000    0.000000
     6 Ar1   c      0.000000           0.000000    0.000000    0.000000
     7 Ar1   c      0.000000           0.000000    0.000000    0.000000
     8 Ar1   c      0.000000           0.000000    0.000000    0.000000
     9 Ar1   c      0.000000           0.000000    0.000000    0.000000
    10 Ar1   c      0.000000           0.000000    0.000000    0.000000
    11 Ar1   c      0.000000           0.000000    0.000000    0.000000
    12 Ar1   c      0.000000           0.000000    0.000000    0.000000
    13 Ar1   c      0.000000           0.000000    0.000000    0.000000
    14 Ar1   c      0.000000           0.000000    0.000000    0.000000
    15 Ar1   c      0.000000           0.000000    0.000000    0.000000
[...]
   500 Ar1   c      0.000000           0.000000    0.000000    0.000000
   501 Ar1   c      0.000000           0.000000    0.000000    0.000000
   502 Ar1   c      0.000000           0.000000    0.000000    0.000000
   503 Ar1   c      0.000000           0.000000    0.000000    0.000000
   504 Ar1   c      0.000000           0.000000    0.000000    0.000000
   505 Ar1   c      0.000000           0.000000    0.000000    0.000000
   506 Ar1   c      0.000000           0.000000    0.000000    0.000000
   507 Ar1   c      0.000000           0.000000    0.000000    0.000000
   508 Ar1   c      0.000000           0.000000    0.000000    0.000000
   509 Ar1   c      0.000000           0.000000    0.000000    0.000000
   510 Ar1   c      0.000000           0.000000    0.000000    0.000000
   511 Ar1   c      0.000000           0.000000    0.000000    0.000000
   512 Ar1   c      0.000000           0.000000    0.000000    0.000000

  Electric Field Gradients at atomic positions :

   Site no.                      EFGs (V/Angs**2)
                xx        xy        yy        xz        yz        zz
        1      0.0000    0.0000    0.0000    0.0000    0.0000    0.0000
        2      0.0000    0.0000    0.0000    0.0000    0.0000    0.0000
        3      0.0000    0.0000    0.0000    0.0000    0.0000    0.0000
        4      0.0000    0.0000    0.0000    0.0000    0.0000    0.0000
        5      0.0000    0.0000    0.0000    0.0000    0.0000    0.0000
        6      0.0000    0.0000    0.0000    0.0000    0.0000    0.0000
        7      0.0000    0.0000    0.0000    0.0000    0.0000    0.0000
        8      0.0000    0.0000    0.0000    0.0000    0.0000    0.0000
        9      0.0000    0.0000    0.0000    0.0000    0.0000    0.0000
       10      0.0000    0.0000    0.0000    0.0000    0.0000    0.0000
       11      0.0000    0.0000    0.0000    0.0000    0.0000    0.0000
       12      0.0000    0.0000    0.0000    0.0000    0.0000    0.0000
       13      0.0000    0.0000    0.0000    0.0000    0.0000    0.0000
       14      0.0000    0.0000    0.0000    0.0000    0.0000    0.0000
       15      0.0000    0.0000    0.0000    0.0000    0.0000    0.0000
       16      0.0000    0.0000    0.0000    0.0000    0.0000    0.0000
       17      0.0000    0.0000    0.0000    0.0000    0.0000    0.0000
       18      0.0000    0.0000    0.0000    0.0000    0.0000    0.0000
       19      0.0000    0.0000    0.0000    0.0000    0.0000    0.0000
       20      0.0000    0.0000    0.0000    0.0000    0.0000    0.0000
       21      0.0000    0.0000    0.0000    0.0000    0.0000    0.0000
       22      0.0000    0.0000    0.0000    0.0000    0.0000    0.0000
       23      0.0000    0.0000    0.0000    0.0000    0.0000    0.0000
       24      0.0000    0.0000    0.0000    0.0000    0.0000    0.0000
       25      0.0000    0.0000    0.0000    0.0000    0.0000    0.0000
       26      0.0000    0.0000    0.0000    0.0000    0.0000    0.0000
       27      0.0000    0.0000    0.0000    0.0000    0.0000    0.0000
       28      0.0000    0.0000    0.0000    0.0000    0.0000    0.0000
       29      0.0000    0.0000    0.0000    0.0000    0.0000    0.0000
       30      0.0000    0.0000    0.0000    0.0000    0.0000    0.0000
       31      0.0000    0.0000    0.0000    0.0000    0.0000    0.0000
       32      0.0000    0.0000    0.0000    0.0000    0.0000    0.0000
       33      0.0000    0.0000    0.0000    0.0000    0.0000    0.0000
       34      0.0000    0.0000    0.0000    0.0000    0.0000    0.0000
       35      0.0000    0.0000    0.0000    0.0000    0.0000    0.0000
       36      0.0000    0.0000    0.0000    0.0000    0.0000    0.0000
       37      0.0000    0.0000    0.0000    0.0000    0.0000    0.0000
       38      0.0000    0.0000    0.0000    0.0000    0.0000    0.0000
       39      0.0000    0.0000    0.0000    0.0000    0.0000    0.0000
       40      0.0000    0.0000    0.0000    0.0000    0.0000    0.0000
       41      0.0000    0.0000    0.0000    0.0000    0.0000    0.0000
       42      0.0000    0.0000    0.0000    0.0000    0.0000    0.0000
       43      0.0000    0.0000    0.0000    0.0000    0.0000    0.0000
       44      0.0000    0.0000    0.0000    0.0000    0.0000    0.0000
       45      0.0000    0.0000    0.0000    0.0000    0.0000    0.0000
       46      0.0000    0.0000    0.0000    0.0000    0.0000    0.0000
       47      0.0000    0.0000    0.0000    0.0000    0.0000    0.0000
       48      0.0000    0.0000    0.0000    0.0000    0.0000    0.0000
       49      0.0000    0.0000    0.0000    0.0000    0.0000    0.0000
       50      0.0000    0.0000    0.0000    0.0000    0.0000    0.0000
       51      0.0000    0.0000    0.0000    0.0000    0.0000    0.0000
       52      0.0000    0.0000    0.0000    0.0000    0.0000    0.0000
       53      0.0000    0.0000    0.0000    0.0000    0.0000    0.0000
       54      0.0000    0.0000    0.0000    0.0000    0.0000    0.0000
       55      0.0000    0.0000    0.0000    0.0000    0.0000    0.0000
       56      0.0000    0.0000    0.0000    0.0000    0.0000    0.0000
       57      0.0000    0.0000    0.0000    0.0000    0.0000    0.0000
       58      0.0000    0.0000    0.0000    0.0000    0.0000    0.0000
       59      0.0000    0.0000    0.0000    0.0000    0.0000    0.0000
       60      0.0000    0.0000    0.0000    0.0000    0.0000    0.0000
[...]
      498      0.0000    0.0000    0.0000    0.0000    0.0000    0.0000
      499      0.0000    0.0000    0.0000    0.0000    0.0000    0.0000
      500      0.0000    0.0000    0.0000    0.0000    0.0000    0.0000
      501      0.0000    0.0000    0.0000    0.0000    0.0000    0.0000
      502      0.0000    0.0000    0.0000    0.0000    0.0000    0.0000
      503      0.0000    0.0000    0.0000    0.0000    0.0000    0.0000
      504      0.0000    0.0000    0.0000    0.0000    0.0000    0.0000
      505      0.0000    0.0000    0.0000    0.0000    0.0000    0.0000
      506      0.0000    0.0000    0.0000    0.0000    0.0000    0.0000
      507      0.0000    0.0000    0.0000    0.0000    0.0000    0.0000
      508      0.0000    0.0000    0.0000    0.0000    0.0000    0.0000
      509      0.0000    0.0000    0.0000    0.0000    0.0000    0.0000
      510      0.0000    0.0000    0.0000    0.0000    0.0000    0.0000
      511      0.0000    0.0000    0.0000    0.0000    0.0000    0.0000
      512      0.0000    0.0000    0.0000    0.0000    0.0000    0.0000

  EFG Tensor properties :

   Site no.    Diagonalised EFGs (V/Angs**2)          eVzz/h        Asymmetry
                 xx        yy        zz             (MHz/barn)      Parameter
        1       0.0000    0.0000    0.0000             0.0000        0.0000
        2       0.0000    0.0000    0.0000             0.0000        0.0000
        3       0.0000    0.0000    0.0000             0.0000        0.0000
        4       0.0000    0.0000    0.0000             0.0000        0.0000
        5       0.0000    0.0000    0.0000             0.0000        0.0000
        6       0.0000    0.0000    0.0000             0.0000        0.0000
        7       0.0000    0.0000    0.0000             0.0000        0.0000
        8       0.0000    0.0000    0.0000             0.0000        0.0000
        9       0.0000    0.0000    0.0000             0.0000        0.0000
       10       0.0000    0.0000    0.0000             0.0000        0.0000
       11       0.0000    0.0000    0.0000             0.0000        0.0000
       12       0.0000    0.0000    0.0000             0.0000        0.0000
       13       0.0000    0.0000    0.0000             0.0000        0.0000
       14       0.0000    0.0000    0.0000             0.0000        0.0000
       15       0.0000    0.0000    0.0000             0.0000        0.0000
       16       0.0000    0.0000    0.0000             0.0000        0.0000
       17       0.0000    0.0000    0.0000             0.0000        0.0000
       18       0.0000    0.0000    0.0000             0.0000        0.0000
       19       0.0000    0.0000    0.0000             0.0000        0.0000
       20       0.0000    0.0000    0.0000             0.0000        0.0000
       21       0.0000    0.0000    0.0000             0.0000        0.0000
       22       0.0000    0.0000    0.0000             0.0000        0.0000
       23       0.0000    0.0000    0.0000             0.0000        0.0000
       24       0.0000    0.0000    0.0000             0.0000        0.0000
       25       0.0000    0.0000    0.0000             0.0000        0.0000
       26       0.0000    0.0000    0.0000             0.0000        0.0000
       27       0.0000    0.0000    0.0000             0.0000        0.0000
       28       0.0000    0.0000    0.0000             0.0000        0.0000
       29       0.0000    0.0000    0.0000             0.0000        0.0000
       30       0.0000    0.0000    0.0000             0.0000        0.0000
       31       0.0000    0.0000    0.0000             0.0000        0.0000
       32       0.0000    0.0000    0.0000             0.0000        0.0000
       33       0.0000    0.0000    0.0000             0.0000        0.0000
       34       0.0000    0.0000    0.0000             0.0000        0.0000
       35       0.0000    0.0000    0.0000             0.0000        0.0000
       36       0.0000    0.0000    0.0000             0.0000        0.0000
       37       0.0000    0.0000    0.0000             0.0000        0.0000
       38       0.0000    0.0000    0.0000             0.0000        0.0000
       39       0.0000    0.0000    0.0000             0.0000        0.0000
       40       0.0000    0.0000    0.0000             0.0000        0.0000
       41       0.0000    0.0000    0.0000             0.0000        0.0000
       42       0.0000    0.0000    0.0000             0.0000        0.0000
       43       0.0000    0.0000    0.0000             0.0000        0.0000
       44       0.0000    0.0000    0.0000             0.0000        0.0000
       45       0.0000    0.0000    0.0000             0.0000        0.0000
       46       0.0000    0.0000    0.0000             0.0000        0.0000
       47       0.0000    0.0000    0.0000             0.0000        0.0000
       48       0.0000    0.0000    0.0000             0.0000        0.0000
       49       0.0000    0.0000    0.0000             0.0000        0.0000
       50       0.0000    0.0000    0.0000             0.0000        0.0000
       51       0.0000    0.0000    0.0000             0.0000        0.0000
       52       0.0000    0.0000    0.0000             0.0000        0.0000
       53       0.0000    0.0000    0.0000             0.0000        0.0000
       54       0.0000    0.0000    0.0000             0.0000        0.0000
       55       0.0000    0.0000    0.0000             0.0000        0.0000
       56       0.0000    0.0000    0.0000             0.0000        0.0000
       57       0.0000    0.0000    0.0000             0.0000        0.0000
       58       0.0000    0.0000    0.0000             0.0000        0.0000
       59       0.0000    0.0000    0.0000             0.0000        0.0000
       60       0.0000    0.0000    0.0000             0.0000        0.0000
[...]
      498       0.0000    0.0000    0.0000             0.0000        0.0000
      499       0.0000    0.0000    0.0000             0.0000        0.0000
      500       0.0000    0.0000    0.0000             0.0000        0.0000
      501       0.0000    0.0000    0.0000             0.0000        0.0000
      502       0.0000    0.0000    0.0000             0.0000        0.0000
      503       0.0000    0.0000    0.0000             0.0000        0.0000
      504       0.0000    0.0000    0.0000             0.0000        0.0000
      505       0.0000    0.0000    0.0000             0.0000        0.0000
      506       0.0000    0.0000    0.0000             0.0000        0.0000
      507       0.0000    0.0000    0.0000             0.0000        0.0000
      508       0.0000    0.0000    0.0000             0.0000        0.0000
      509       0.0000    0.0000    0.0000             0.0000        0.0000
      510       0.0000    0.0000    0.0000             0.0000        0.0000
      511       0.0000    0.0000    0.0000             0.0000        0.0000
      512       0.0000    0.0000    0.0000             0.0000        0.0000

  Total time to end of atomic site potentials =       0.1563 s

  Equations of motion will be integrated using stochastic algorithm.

*  Molecular Dynamics                                                          *

  Microcanonical ensemble (NVE) to be used

  No. of mobile ions        =                512

  No. of degrees of freedom =               1533

  Time step                 =           0.010000 ps
  Equilibration time        =           1.000000 ps
  Production time           =           5.000000 ps
  Scaling time              =           1.000000 ps
  Scaling frequency         =           0.010000 ps
  Sampling frequency        =           1.000000 ps
  Write frequency           =           1.000000 ps
  TD-Force start time       =           0.000000 ps
  TD-Field start time       =           0.000000 ps

  Molecular dynamics equilibration :

  ** Time :            1.00000 ps :
     Properties:                   Instantaneous       Averaged
       Kinetic energy    (eV) =       5.253782          5.253782
       Potential energy  (eV) =     -23.412696        -23.412696
       Total energy      (eV) =     -18.158914        -18.158914
       Temperature       (K)  =      79.540183         79.540183
       Pressure         (GPa) =       0.032752          0.032752

  Molecular dynamics production :

  ** Time :            1.00000 ps :
     Properties:                   Instantaneous       Averaged
       Kinetic energy    (eV) =       5.152443          5.152443
       Potential energy  (eV) =     -23.312103        -23.312103
       Total energy      (eV) =     -18.159660        -18.159660
       Temperature       (K)  =      78.005944         78.005944
       Pressure         (GPa) =       0.042649          0.042649
  ** Time :            2.00000 ps :
     Properties:                   Instantaneous       Averaged
       Kinetic energy    (eV) =       5.047231          5.099837
       Potential energy  (eV) =     -23.209750        -23.260926
       Total energy      (eV) =     -18.162519        -18.161089
       Temperature       (K)  =      76.413075         77.209509
       Pressure         (GPa) =       0.049181          0.045915
  ** Time :            3.00000 ps :
     Properties:                   Instantaneous       Averaged
       Kinetic energy    (eV) =       5.282950          5.160875
       Potential energy  (eV) =     -23.445106        -23.322319
       Total energy      (eV) =     -18.162156        -18.161445
       Temperature       (K)  =      79.981772         78.133597
       Pressure         (GPa) =       0.042336          0.044722
  ** Time :            4.00000 ps :
     Properties:                   Instantaneous       Averaged
       Kinetic energy    (eV) =       5.149909          5.158133
       Potential energy  (eV) =     -23.311432        -23.319597
       Total energy      (eV) =     -18.161523        -18.161464
       Temperature       (K)  =      77.967577         78.092092
       Pressure         (GPa) =       0.046261          0.045107
  ** Time :            5.00000 ps :
     Properties:                   Instantaneous       Averaged
       Kinetic energy    (eV) =       4.953909          5.117288
       Potential energy  (eV) =     -23.116259        -23.278930
       Total energy      (eV) =     -18.162350        -18.161641
       Temperature       (K)  =      75.000216         77.473717
       Pressure         (GPa) =       0.054169          0.046919

  Timing analysis for GULP :

  Task / Subroutine                                          Time (Seconds)
  Calculation of real space energy and derivatives               21.1851
  Calculation of three-body energy and derivatives                0.0221
  Calculation of molecules and connectivity                       0.0002
  Calculation of matrix inversion                                 0.0011
  Molecular dynamics - update of geometry                         0.4064
  Molecular dynamics - predictor                                  0.0031
  Molecular dynamics - corrector                                  0.0035
  Molecular dynamics - velocity correction                        0.0026
  Global summation overhead                                       0.0012

  GULP trajectory file written as Ar_rho_0.0207125_N=512_cubic_298_TS=10.trg

  Job Finished at 17:51.19 30th July       2022