  Job Started  at 16:20.46 29th July       2022

  Number of CPUs =     1

  Total number of configurations input =      1

*  Input for Configuration =   1                                               *

  Formula = Ar64

  Number of irreducible atoms/shells =      64

  Total number atoms/shells =      64

  Dimensionality = 3               :  Bulk

  Cartesian lattice vectors (Angstroms) :

       14.565000    0.000000    0.000000
        0.000000   14.565000    0.000000
        0.000000    0.000000   14.565000

  Cell parameters (Angstroms/Degrees):

  a =      14.5650    alpha =  90.0000
  b =      14.5650    beta  =  90.0000
  c =      14.5650    gamma =  90.0000

  Initial cell volume =        3089.807812 Angs**3

  Temperature of configuration =   60.0     K

  Pressure of configuration =         0.000 GPa

  Fractional coordinates of asymmetric unit :

   No.  Atomic       x           y          z         Charge      Occupancy
        Label      (Frac)      (Frac)     (Frac)        (e)         (Frac)
      1 Ar1   c    0.000000 *  0.000000 *  0.000000 *   0.00000    1.000000
      2 Ar1   c    0.000000 *  0.000000 *  0.249983 *   0.00000    1.000000
      3 Ar1   c    0.000000 *  0.000000 *  0.500034 *   0.00000    1.000000
      4 Ar1   c    0.000000 *  0.000000 *  0.750017 *   0.00000    1.000000
      5 Ar1   c    0.000000 *  0.249983 *  0.000000 *   0.00000    1.000000
      6 Ar1   c    0.000000 *  0.249983 *  0.249983 *   0.00000    1.000000
      7 Ar1   c    0.000000 *  0.249983 *  0.500034 *   0.00000    1.000000
      8 Ar1   c    0.000000 *  0.249983 *  0.750017 *   0.00000    1.000000
      9 Ar1   c    0.000000 *  0.500034 *  0.000000 *   0.00000    1.000000
     10 Ar1   c    0.000000 *  0.500034 *  0.249983 *   0.00000    1.000000
     11 Ar1   c    0.000000 *  0.500034 *  0.500034 *   0.00000    1.000000
     12 Ar1   c    0.000000 *  0.500034 *  0.750017 *   0.00000    1.000000
     13 Ar1   c    0.000000 *  0.750017 *  0.000000 *   0.00000    1.000000
     14 Ar1   c    0.000000 *  0.750017 *  0.249983 *   0.00000    1.000000
     15 Ar1   c    0.000000 *  0.750017 *  0.500034 *   0.00000    1.000000
     16 Ar1   c    0.000000 *  0.750017 *  0.750017 *   0.00000    1.000000
     17 Ar1   c    0.249983 *  0.000000 *  0.000000 *   0.00000    1.000000
     18 Ar1   c    0.249983 *  0.000000 *  0.249983 *   0.00000    1.000000
     19 Ar1   c    0.249983 *  0.000000 *  0.500034 *   0.00000    1.000000
     20 Ar1   c    0.249983 *  0.000000 *  0.750017 *   0.00000    1.000000
     21 Ar1   c    0.249983 *  0.249983 *  0.000000 *   0.00000    1.000000
     22 Ar1   c    0.249983 *  0.249983 *  0.249983 *   0.00000    1.000000
     23 Ar1   c    0.249983 *  0.249983 *  0.500034 *   0.00000    1.000000
     24 Ar1   c    0.249983 *  0.249983 *  0.750017 *   0.00000    1.000000
     25 Ar1   c    0.249983 *  0.500034 *  0.000000 *   0.00000    1.000000
     26 Ar1   c    0.249983 *  0.500034 *  0.249983 *   0.00000    1.000000
     27 Ar1   c    0.249983 *  0.500034 *  0.500034 *   0.00000    1.000000
     28 Ar1   c    0.249983 *  0.500034 *  0.750017 *   0.00000    1.000000
     29 Ar1   c    0.249983 *  0.750017 *  0.000000 *   0.00000    1.000000
     30 Ar1   c    0.249983 *  0.750017 *  0.249983 *   0.00000    1.000000
     31 Ar1   c    0.249983 *  0.750017 *  0.500034 *   0.00000    1.000000
     32 Ar1   c    0.249983 *  0.750017 *  0.750017 *   0.00000    1.000000
     33 Ar1   c    0.500034 *  0.000000 *  0.000000 *   0.00000    1.000000
     34 Ar1   c    0.500034 *  0.000000 *  0.249983 *   0.00000    1.000000
     35 Ar1   c    0.500034 *  0.000000 *  0.500034 *   0.00000    1.000000
     36 Ar1   c    0.500034 *  0.000000 *  0.750017 *   0.00000    1.000000
     37 Ar1   c    0.500034 *  0.249983 *  0.000000 *   0.00000    1.000000
     38 Ar1   c    0.500034 *  0.249983 *  0.249983 *   0.00000    1.000000
     39 Ar1   c    0.500034 *  0.249983 *  0.500034 *   0.00000    1.000000
     40 Ar1   c    0.500034 *  0.249983 *  0.750017 *   0.00000    1.000000
     41 Ar1   c    0.500034 *  0.500034 *  0.000000 *   0.00000    1.000000
     42 Ar1   c    0.500034 *  0.500034 *  0.249983 *   0.00000    1.000000
     43 Ar1   c    0.500034 *  0.500034 *  0.500034 *   0.00000    1.000000
     44 Ar1   c    0.500034 *  0.500034 *  0.750017 *   0.00000    1.000000
     45 Ar1   c    0.500034 *  0.750017 *  0.000000 *   0.00000    1.000000
     46 Ar1   c    0.500034 *  0.750017 *  0.249983 *   0.00000    1.000000
     47 Ar1   c    0.500034 *  0.750017 *  0.500034 *   0.00000    1.000000
     48 Ar1   c    0.500034 *  0.750017 *  0.750017 *   0.00000    1.000000
     49 Ar1   c    0.750017 *  0.000000 *  0.000000 *   0.00000    1.000000
     50 Ar1   c    0.750017 *  0.000000 *  0.249983 *   0.00000    1.000000
     51 Ar1   c    0.750017 *  0.000000 *  0.500034 *   0.00000    1.000000
     52 Ar1   c    0.750017 *  0.000000 *  0.750017 *   0.00000    1.000000
     53 Ar1   c    0.750017 *  0.249983 *  0.000000 *   0.00000    1.000000
     54 Ar1   c    0.750017 *  0.249983 *  0.249983 *   0.00000    1.000000
     55 Ar1   c    0.750017 *  0.249983 *  0.500034 *   0.00000    1.000000
     56 Ar1   c    0.750017 *  0.249983 *  0.750017 *   0.00000    1.000000
     57 Ar1   c    0.750017 *  0.500034 *  0.000000 *   0.00000    1.000000
     58 Ar1   c    0.750017 *  0.500034 *  0.249983 *   0.00000    1.000000
     59 Ar1   c    0.750017 *  0.500034 *  0.500034 *   0.00000    1.000000
     60 Ar1   c    0.750017 *  0.500034 *  0.750017 *   0.00000    1.000000
     61 Ar1   c    0.750017 *  0.750017 *  0.000000 *   0.00000    1.000000
     62 Ar1   c    0.750017 *  0.750017 *  0.249983 *   0.00000    1.000000
     63 Ar1   c    0.750017 *  0.750017 *  0.500034 *   0.00000    1.000000
     64 Ar1   c    0.750017 *  0.750017 *  0.750017 *   0.00000    1.000000

  Molecule list generated from bond lengths :

  Total number of molecules =     0

*  General input information                                                   *

  Species output for all configurations :

  Species    Type    Atomic    Atomic    Charge       Radii (Angs)     Library
                     Number     Mass       (e)     Cova   Ionic  VDW   Symbol
    Ar1      Core       18      39.95   0.000000   0.000  0.000  0.000 Ar4+4

  Universal Force Field (UFF) species output:

  Species    Type    Radius    Theta    Distance    Energy     Zeta     Zeff
                     (Ang)   (degrees)   (Ang)       (eV)               (e)
    Ar1      Core    1.0320    90.000     3.8680    0.0080   15.7630   0.2994

  Lattice summation method               =    Ewald          (3-D)
                                         =    Parry          (2-D)
                                         =    Saunders et al (1-D)
  Accuracy factor for lattice sums       =   12.000

  Analytic derivatives to be used

  Time limit = Infinity

  Maximum range for interatomic potentials =    100000.000000 Angstroms

  General interatomic potentials :

Atom  Types   Potential      Parameter       Value         Units   Cutoffs(Ang)
  1     2                                                            Min /  Max
Ar1  c Ar1  c Lennard       Lennard-Jones A  89979.376    eV*Ang^m  3Bond 10.000
                            Lennard-Jones B  53.734620    eV*Ang^n
                            Exponent m        12          None
                            Exponent n         6          None

  Intramolecular potentials :

Atom  Types   Potential      Parameter       Value         Units   Cutoffs(Ang)
  1     2                                                            Min /  Max
Ar1  c Ar1  c Harmonic      Harmonic k2     0.29359911    eV*Ang^-2 0.000 1 Bond
                            Harmonic r0      2.0640000    Ang
                            Harmonic k3      0.0000000    eV*Ang^-3
                            Harmonic k4      0.0000000    eV*Ang^-4
                                                                    single   cyc

  Intramolecular Three-body potentials :

  Atoms       Potential      Parameter       Value         Units   Cutoffs(Ang)
  1 / 2 / 3                                                          Min /  Max
Ar1   core    Linear 3-body Three-body cnst 0.97315276E-02eV        0.000 1 Bond
Ar1   core                  Three-body sign -1.0000000    None      0.000 1 Bond
Ar1   core                                                          0.000

*  Output for configuration   1                                                *

  Components of energy :

  Interatomic potentials     =          -2.75724948 eV
  Three-body potentials      =           0.00000000 eV
  Monopole - monopole (real) =           0.00000000 eV
  Monopole - monopole (recip)=           0.00000000 eV
  Monopole - monopole (total)=           0.00000000 eV
  Total lattice energy       =          -2.75724948 eV
  Total lattice energy       =            -266.0324 kJ/(mole unit cells)

  MSI Archive (version 3) open for Movie as Ar_rho_0.0207125_N=64_cubic_298_3D.arc

  Electrostatic potential at atomic positions :

 Site  Atomic      Potential                Derivatives (V/Angs)
 No.   Label          (V)                 x           y           z
     1 Ar1   c      0.000000           0.000000    0.000000    0.000000
     2 Ar1   c      0.000000           0.000000    0.000000    0.000000
     3 Ar1   c      0.000000           0.000000    0.000000    0.000000
     4 Ar1   c      0.000000           0.000000    0.000000    0.000000
     5 Ar1   c      0.000000           0.000000    0.000000    0.000000
     6 Ar1   c      0.000000           0.000000    0.000000    0.000000
     7 Ar1   c      0.000000           0.000000    0.000000    0.000000
     8 Ar1   c      0.000000           0.000000    0.000000    0.000000
     9 Ar1   c      0.000000           0.000000    0.000000    0.000000
    10 Ar1   c      0.000000           0.000000    0.000000    0.000000
    11 Ar1   c      0.000000           0.000000    0.000000    0.000000
    12 Ar1   c      0.000000           0.000000    0.000000    0.000000
    13 Ar1   c      0.000000           0.000000    0.000000    0.000000
    14 Ar1   c      0.000000           0.000000    0.000000    0.000000
    15 Ar1   c      0.000000           0.000000    0.000000    0.000000
    16 Ar1   c      0.000000           0.000000    0.000000    0.000000
    17 Ar1   c      0.000000           0.000000    0.000000    0.000000
    18 Ar1   c      0.000000           0.000000    0.000000    0.000000
    19 Ar1   c      0.000000           0.000000    0.000000    0.000000
    20 Ar1   c      0.000000           0.000000    0.000000    0.000000
    21 Ar1   c      0.000000           0.000000    0.000000    0.000000
    22 Ar1   c      0.000000           0.000000    0.000000    0.000000
    23 Ar1   c      0.000000           0.000000    0.000000    0.000000
    24 Ar1   c      0.000000           0.000000    0.000000    0.000000
    25 Ar1   c      0.000000           0.000000    0.000000    0.000000
    26 Ar1   c      0.000000           0.000000    0.000000    0.000000
    27 Ar1   c      0.000000           0.000000    0.000000    0.000000
[...]
     Properties:                   Instantaneous       Averaged
       Kinetic energy    (eV) =       0.610303          0.622409
       Potential energy  (eV) =      -2.888174         -2.899802
       Total energy      (eV) =      -2.277870         -2.277393
       Temperature       (K)  =      74.944661         76.431151
       Pressure         (GPa) =       0.046684          0.043808
  ** Time :            1.40000 ps :
     Properties:                   Instantaneous       Averaged
       Kinetic energy    (eV) =       0.613021          0.621738
       Potential energy  (eV) =      -2.890196         -2.899116
       Total energy      (eV) =      -2.277174         -2.277378
       Temperature       (K)  =      75.278431         76.348814
       Pressure         (GPa) =       0.045053          0.043897
  ** Time :            1.50000 ps :
     Properties:                   Instantaneous       Averaged
       Kinetic energy    (eV) =       0.660318          0.624310
       Potential energy  (eV) =      -2.938299         -2.901728
       Total energy      (eV) =      -2.277981         -2.277418
       Temperature       (K)  =      81.086404         76.664653
       Pressure         (GPa) =       0.034323          0.043259
  ** Time :            1.60000 ps :
     Properties:                   Instantaneous       Averaged
       Kinetic energy    (eV) =       0.577107          0.621360
       Potential energy  (eV) =      -2.854709         -2.898789
       Total energy      (eV) =      -2.277601         -2.277429
       Temperature       (K)  =      70.868210         76.302375
       Pressure         (GPa) =       0.054202          0.043943
  ** Time :            1.70000 ps :
     Properties:                   Instantaneous       Averaged
       Kinetic energy    (eV) =       0.574780          0.618620
       Potential energy  (eV) =      -2.851578         -2.896012
       Total energy      (eV) =      -2.276798         -2.277392
       Temperature       (K)  =      70.582425         75.965908
       Pressure         (GPa) =       0.057180          0.044721
  ** Time :            1.80000 ps :
     Properties:                   Instantaneous       Averaged
       Kinetic energy    (eV) =       0.643167          0.619984
       Potential energy  (eV) =      -2.920343         -2.897364
       Total energy      (eV) =      -2.277176         -2.277380
       Temperature       (K)  =      78.980292         76.133373
       Pressure         (GPa) =       0.039459          0.044429
  ** Time :            1.90000 ps :
     Properties:                   Instantaneous       Averaged
       Kinetic energy    (eV) =       0.600310          0.618948
       Potential energy  (eV) =      -2.877321         -2.896309
       Total energy      (eV) =      -2.277011         -2.277361
       Temperature       (K)  =      73.717420         76.006218
       Pressure         (GPa) =       0.045920          0.044507
  ** Time :            2.00000 ps :
     Properties:                   Instantaneous       Averaged
       Kinetic energy    (eV) =       0.682692          0.622135
       Potential energy  (eV) =      -2.959331         -2.899460
       Total energy      (eV) =      -2.276639         -2.277325
       Temperature       (K)  =      83.833877         76.397601
       Pressure         (GPa) =       0.027706          0.043667
  ** Time :            2.10000 ps :
     Properties:                   Instantaneous       Averaged
       Kinetic energy    (eV) =       0.645494          0.623248
       Potential energy  (eV) =      -2.922238         -2.900545
       Total energy      (eV) =      -2.276744         -2.277297
       Temperature       (K)  =      79.266020         76.534192
       Pressure         (GPa) =       0.036190          0.043311
  ** Time :            2.20000 ps :
     Properties:                   Instantaneous       Averaged
       Kinetic energy    (eV) =       0.617812          0.623001
       Potential energy  (eV) =      -2.894877         -2.900287
       Total energy      (eV) =      -2.277066         -2.277287
       Temperature       (K)  =      75.866669         76.503850
       Pressure         (GPa) =       0.042630          0.043280
  ** Time :            2.30000 ps :
     Properties:                   Instantaneous       Averaged
       Kinetic energy    (eV) =       0.682115          0.625571
       Potential energy  (eV) =      -2.958861         -2.902834
       Total energy      (eV) =      -2.276746         -2.277263
       Temperature       (K)  =      83.763043         76.819467
       Pressure         (GPa) =       0.027501          0.042594
  ** Time :            2.40000 ps :
     Properties:                   Instantaneous       Averaged
       Kinetic energy    (eV) =       0.673190          0.627555
       Potential energy  (eV) =      -2.949292         -2.904770
       Total energy      (eV) =      -2.276102         -2.277215
       Temperature       (K)  =      82.667116         77.063119
       Pressure         (GPa) =       0.029494          0.042048
  ** Time :            2.50000 ps :
     Properties:                   Instantaneous       Averaged
       Kinetic energy    (eV) =       0.646768          0.628323
       Potential energy  (eV) =      -2.923192         -2.905507
       Total energy      (eV) =      -2.276424         -2.277183
       Temperature       (K)  =      79.422516         77.157495
       Pressure         (GPa) =       0.038033          0.041888
  ** Time :            2.60000 ps :
     Properties:                   Instantaneous       Averaged
       Kinetic energy    (eV) =       0.604247          0.627397
       Potential energy  (eV) =      -2.881207         -2.904572
       Total energy      (eV) =      -2.276960         -2.277175
       Temperature       (K)  =      74.200886         77.043780
       Pressure         (GPa) =       0.051307          0.042250
  ** Time :            2.70000 ps :
     Properties:                   Instantaneous       Averaged
       Kinetic energy    (eV) =       0.601649          0.626444
       Potential energy  (eV) =      -2.877967         -2.903587
       Total energy      (eV) =      -2.276318         -2.277143
       Temperature       (K)  =      73.881907         76.926673
       Pressure         (GPa) =       0.054437          0.042701
  ** Time :            2.80000 ps :
     Properties:                   Instantaneous       Averaged
       Kinetic energy    (eV) =       0.593667          0.625273
       Potential energy  (eV) =      -2.869392         -2.902365
       Total energy      (eV) =      -2.275725         -2.277092
       Temperature       (K)  =      72.901668         76.782923
       Pressure         (GPa) =       0.054618          0.043127
  ** Time :            2.90000 ps :
     Properties:                   Instantaneous       Averaged
       Kinetic energy    (eV) =       0.678175          0.627097
       Potential energy  (eV) =      -2.954921         -2.904178
       Total energy      (eV) =      -2.276746         -2.277080
       Temperature       (K)  =      83.279220         77.006933
       Pressure         (GPa) =       0.031129          0.042713
  ** Time :            3.00000 ps :
     Properties:                   Instantaneous       Averaged
       Kinetic energy    (eV) =       0.677078          0.628763
       Potential energy  (eV) =      -2.954414         -2.905852
       Total energy      (eV) =      -2.277336         -2.277089
       Temperature       (K)  =      83.144554         77.211521
       Pressure         (GPa) =       0.029796          0.042283
  ** Time :            3.10000 ps :
     Properties:                   Instantaneous       Averaged
       Kinetic energy    (eV) =       0.619395          0.628461
       Potential energy  (eV) =      -2.896247         -2.905542
       Total energy      (eV) =      -2.276852         -2.277081
       Temperature       (K)  =      76.061128         77.174411
       Pressure         (GPa) =       0.047278          0.042444
  ** Time :            3.20000 ps :
     Properties:                   Instantaneous       Averaged
       Kinetic energy    (eV) =       0.564129          0.626451
       Potential energy  (eV) =      -2.841946         -2.903555
       Total energy      (eV) =      -2.277817         -2.277104
       Temperature       (K)  =      69.274478         76.927538
       Pressure         (GPa) =       0.066053          0.043182
  ** Time :            3.30000 ps :
     Properties:                   Instantaneous       Averaged
       Kinetic energy    (eV) =       0.560900          0.624464
       Potential energy  (eV) =      -2.839147         -2.901603
       Total energy      (eV) =      -2.278247         -2.277139
       Temperature       (K)  =      68.877948         76.683611
       Pressure         (GPa) =       0.068138          0.043938
  ** Time :            3.40000 ps :
     Properties:                   Instantaneous       Averaged
       Kinetic energy    (eV) =       0.578809          0.623122
       Potential energy  (eV) =      -2.857162         -2.900296
       Total energy      (eV) =      -2.278354         -2.277174
       Temperature       (K)  =      71.077147         76.518715
       Pressure         (GPa) =       0.063920          0.044526
  ** Time :            3.50000 ps :
     Properties:                   Instantaneous       Averaged
       Kinetic energy    (eV) =       0.595107          0.622321
       Potential energy  (eV) =      -2.873836         -2.899540
       Total energy      (eV) =      -2.278729         -2.277219
       Temperature       (K)  =      73.078514         76.420424
       Pressure         (GPa) =       0.059277          0.044947
  ** Time :            3.60000 ps :
     Properties:                   Instantaneous       Averaged
       Kinetic energy    (eV) =       0.594960          0.621561
       Potential energy  (eV) =      -2.872993         -2.898803
       Total energy      (eV) =      -2.278032         -2.277242
       Temperature       (K)  =      73.060554         76.327094
       Pressure         (GPa) =       0.056660          0.045272
  ** Time :            3.70000 ps :
     Properties:                   Instantaneous       Averaged
       Kinetic energy    (eV) =       0.602120          0.621036
       Potential energy  (eV) =      -2.879080         -2.898270
       Total energy      (eV) =      -2.276959         -2.277234
       Temperature       (K)  =      73.939783         76.262572
       Pressure         (GPa) =       0.054408          0.045519
  ** Time :            3.80000 ps :
     Properties:                   Instantaneous       Averaged
       Kinetic energy    (eV) =       0.646914          0.621717
       Potential energy  (eV) =      -2.923981         -2.898946
       Total energy      (eV) =      -2.277067         -2.277229
       Temperature       (K)  =      79.440427         76.346200
       Pressure         (GPa) =       0.042947          0.045452
  ** Time :            3.90000 ps :
     Properties:                   Instantaneous       Averaged
       Kinetic energy    (eV) =       0.637637          0.622125
       Potential energy  (eV) =      -2.915079         -2.899360
       Total energy      (eV) =      -2.277442         -2.277235
       Temperature       (K)  =      78.301136         76.396327
       Pressure         (GPa) =       0.044694          0.045432
  ** Time :            4.00000 ps :
     Properties:                   Instantaneous       Averaged
       Kinetic energy    (eV) =       0.583989          0.621172
       Potential energy  (eV) =      -2.860680         -2.898393
       Total energy      (eV) =      -2.276691         -2.277221
       Temperature       (K)  =      71.713293         76.279251
       Pressure         (GPa) =       0.055494          0.045684
  ** Time :            4.10000 ps :
     Properties:                   Instantaneous       Averaged
       Kinetic energy    (eV) =       0.630554          0.621400
       Potential energy  (eV) =      -2.906817         -2.898598
       Total energy      (eV) =      -2.276262         -2.277198
       Temperature       (K)  =      77.431422         76.307352
       Pressure         (GPa) =       0.043098          0.045621
  ** Time :            4.20000 ps :
     Properties:                   Instantaneous       Averaged
       Kinetic energy    (eV) =       0.669371          0.622543
       Potential energy  (eV) =      -2.946330         -2.899735
       Total energy      (eV) =      -2.276959         -2.277192
       Temperature       (K)  =      82.198096         76.447608
       Pressure         (GPa) =       0.031879          0.045293
  ** Time :            4.30000 ps :
     Properties:                   Instantaneous       Averaged
       Kinetic energy    (eV) =       0.667425          0.623586
       Potential energy  (eV) =      -2.943689         -2.900757
       Total energy      (eV) =      -2.276263         -2.277171
       Temperature       (K)  =      81.959161         76.575784
       Pressure         (GPa) =       0.034380          0.045040
  ** Time :            4.40000 ps :
     Properties:                   Instantaneous       Averaged
       Kinetic energy    (eV) =       0.519104          0.621212
       Potential energy  (eV) =      -2.795473         -2.898364
       Total energy      (eV) =      -2.276369         -2.277152
       Temperature       (K)  =      63.745506         76.284187
       Pressure         (GPa) =       0.070541          0.045619
  ** Time :            4.50000 ps :
     Properties:                   Instantaneous       Averaged
       Kinetic energy    (eV) =       0.589759          0.620513
       Potential energy  (eV) =      -2.866293         -2.897651
       Total energy      (eV) =      -2.276534         -2.277139
       Temperature       (K)  =      72.421804         76.198356
       Pressure         (GPa) =       0.055014          0.045828
  ** Time :            4.60000 ps :
     Properties:                   Instantaneous       Averaged
       Kinetic energy    (eV) =       0.572121          0.619461
       Potential energy  (eV) =      -2.848170         -2.896576
       Total energy      (eV) =      -2.276049         -2.277115
       Temperature       (K)  =      70.255882         76.069172
       Pressure         (GPa) =       0.059091          0.046116
  ** Time :            4.70000 ps :
     Properties:                   Instantaneous       Averaged
       Kinetic energy    (eV) =       0.567511          0.618355
       Potential energy  (eV) =      -2.843346         -2.895443
       Total energy      (eV) =      -2.275835         -2.277088
       Temperature       (K)  =      69.689822         75.933441
       Pressure         (GPa) =       0.060686          0.046426
  ** Time :            4.80000 ps :
     Properties:                   Instantaneous       Averaged
       Kinetic energy    (eV) =       0.592180          0.617810
       Potential energy  (eV) =      -2.868389         -2.894880
       Total energy      (eV) =      -2.276210         -2.277069
       Temperature       (K)  =      72.719064         75.866475
       Pressure         (GPa) =       0.053793          0.046580
  ** Time :            4.90000 ps :
     Properties:                   Instantaneous       Averaged
       Kinetic energy    (eV) =       0.603697          0.617522
       Potential energy  (eV) =      -2.879316         -2.894562
       Total energy      (eV) =      -2.275619         -2.277040
       Temperature       (K)  =      74.133399         75.831106
       Pressure         (GPa) =       0.049065          0.046631
  ** Time :            5.00000 ps :
     Properties:                   Instantaneous       Averaged
       Kinetic energy    (eV) =       0.674442          0.618661
       Potential energy  (eV) =      -2.950169         -2.895674
       Total energy      (eV) =      -2.275727         -2.277014
       Temperature       (K)  =      82.820812         75.970900
       Pressure         (GPa) =       0.030695          0.046312

  Timing analysis for GULP :

  Task / Subroutine                                          Time (Seconds)
  Calculation of real space energy and derivatives                8.8203
  Calculation of matrix inversion                                 0.0058
  Molecular dynamics - update of geometry                         0.0381
  Molecular dynamics - predictor                                  0.0082
  Molecular dynamics - corrector                                  0.0084
  Molecular dynamics - velocity correction                        0.0077

  GULP trajectory file written as Ar_rho_0.0207125_N=64_cubic_298.trg

  Job Finished at 16:20.55 29th July       2022