  Job Started  at 16:23.08 29th July       2022

  Number of CPUs =     1

  Total number of configurations input =      1

*  Input for Configuration =   1                                               *

  Formula = Ar512

  Number of irreducible atoms/shells =     512

  Total number atoms/shells =     512

  Dimensionality = 3               :  Bulk

  Cartesian lattice vectors (Angstroms) :

       29.130000    0.000000    0.000000
        0.000000   29.130000    0.000000
        0.000000    0.000000   29.130000

  Cell parameters (Angstroms/Degrees):

  a =      29.1300    alpha =  90.0000
  b =      29.1300    beta  =  90.0000
  c =      29.1300    gamma =  90.0000

  Initial cell volume =       24718.462497 Angs**3

  Temperature of configuration =   60.0     K

  Pressure of configuration =         0.000 GPa

  Fractional coordinates of asymmetric unit :

   No.  Atomic       x           y          z         Charge      Occupancy
        Label      (Frac)      (Frac)     (Frac)        (e)         (Frac)
      1 Ar1   c    0.000000 *  0.000000 *  0.000000 *   0.00000    1.000000
      2 Ar1   c    0.000000 *  0.000000 *  0.124991 *   0.00000    1.000000
      3 Ar1   c    0.000000 *  0.000000 *  0.250017 *   0.00000    1.000000
      4 Ar1   c    0.000000 *  0.000000 *  0.375009 *   0.00000    1.000000
      5 Ar1   c    0.000000 *  0.000000 *  0.500000 *   0.00000    1.000000
      6 Ar1   c    0.000000 *  0.000000 *  0.624991 *   0.00000    1.000000
      7 Ar1   c    0.000000 *  0.000000 *  0.750017 *   0.00000    1.000000
      8 Ar1   c    0.000000 *  0.000000 *  0.875009 *   0.00000    1.000000
      9 Ar1   c    0.000000 *  0.124991 *  0.000000 *   0.00000    1.000000
     10 Ar1   c    0.000000 *  0.124991 *  0.124991 *   0.00000    1.000000
     11 Ar1   c    0.000000 *  0.124991 *  0.250017 *   0.00000    1.000000
     12 Ar1   c    0.000000 *  0.124991 *  0.375009 *   0.00000    1.000000
     13 Ar1   c    0.000000 *  0.124991 *  0.500000 *   0.00000    1.000000
     14 Ar1   c    0.000000 *  0.124991 *  0.624991 *   0.00000    1.000000
     15 Ar1   c    0.000000 *  0.124991 *  0.750017 *   0.00000    1.000000
     16 Ar1   c    0.000000 *  0.124991 *  0.875009 *   0.00000    1.000000
     17 Ar1   c    0.000000 *  0.250017 *  0.000000 *   0.00000    1.000000
     18 Ar1   c    0.000000 *  0.250017 *  0.124991 *   0.00000    1.000000
     19 Ar1   c    0.000000 *  0.250017 *  0.250017 *   0.00000    1.000000
     20 Ar1   c    0.000000 *  0.250017 *  0.375009 *   0.00000    1.000000
     21 Ar1   c    0.000000 *  0.250017 *  0.500000 *   0.00000    1.000000
     22 Ar1   c    0.000000 *  0.250017 *  0.624991 *   0.00000    1.000000
     23 Ar1   c    0.000000 *  0.250017 *  0.750017 *   0.00000    1.000000
     24 Ar1   c    0.000000 *  0.250017 *  0.875009 *   0.00000    1.000000
     25 Ar1   c    0.000000 *  0.375009 *  0.000000 *   0.00000    1.000000
     26 Ar1   c    0.000000 *  0.375009 *  0.124991 *   0.00000    1.000000
     27 Ar1   c    0.000000 *  0.375009 *  0.250017 *   0.00000    1.000000
     28 Ar1   c    0.000000 *  0.375009 *  0.375009 *   0.00000    1.000000
     29 Ar1   c    0.000000 *  0.375009 *  0.500000 *   0.00000    1.000000
     30 Ar1   c    0.000000 *  0.375009 *  0.624991 *   0.00000    1.000000
     31 Ar1   c    0.000000 *  0.375009 *  0.750017 *   0.00000    1.000000
     32 Ar1   c    0.000000 *  0.375009 *  0.875009 *   0.00000    1.000000
     33 Ar1   c    0.000000 *  0.500000 *  0.000000 *   0.00000    1.000000
     34 Ar1   c    0.000000 *  0.500000 *  0.124991 *   0.00000    1.000000
     35 Ar1   c    0.000000 *  0.500000 *  0.250017 *   0.00000    1.000000
     36 Ar1   c    0.000000 *  0.500000 *  0.375009 *   0.00000    1.000000
     37 Ar1   c    0.000000 *  0.500000 *  0.500000 *   0.00000    1.000000
     38 Ar1   c    0.000000 *  0.500000 *  0.624991 *   0.00000    1.000000
     39 Ar1   c    0.000000 *  0.500000 *  0.750017 *   0.00000    1.000000
     40 Ar1   c    0.000000 *  0.500000 *  0.875009 *   0.00000    1.000000
     41 Ar1   c    0.000000 *  0.624991 *  0.000000 *   0.00000    1.000000
     42 Ar1   c    0.000000 *  0.624991 *  0.124991 *   0.00000    1.000000
     43 Ar1   c    0.000000 *  0.624991 *  0.250017 *   0.00000    1.000000
     44 Ar1   c    0.000000 *  0.624991 *  0.375009 *   0.00000    1.000000
     45 Ar1   c    0.000000 *  0.624991 *  0.500000 *   0.00000    1.000000
     46 Ar1   c    0.000000 *  0.624991 *  0.624991 *   0.00000    1.000000
     47 Ar1   c    0.000000 *  0.624991 *  0.750017 *   0.00000    1.000000
     48 Ar1   c    0.000000 *  0.624991 *  0.875009 *   0.00000    1.000000
     49 Ar1   c    0.000000 *  0.750017 *  0.000000 *   0.00000    1.000000
     50 Ar1   c    0.000000 *  0.750017 *  0.124991 *   0.00000    1.000000
     51 Ar1   c    0.000000 *  0.750017 *  0.250017 *   0.00000    1.000000
     52 Ar1   c    0.000000 *  0.750017 *  0.375009 *   0.00000    1.000000
     53 Ar1   c    0.000000 *  0.750017 *  0.500000 *   0.00000    1.000000
     54 Ar1   c    0.000000 *  0.750017 *  0.624991 *   0.00000    1.000000
     55 Ar1   c    0.000000 *  0.750017 *  0.750017 *   0.00000    1.000000
     56 Ar1   c    0.000000 *  0.750017 *  0.875009 *   0.00000    1.000000
     57 Ar1   c    0.000000 *  0.875009 *  0.000000 *   0.00000    1.000000
     58 Ar1   c    0.000000 *  0.875009 *  0.124991 *   0.00000    1.000000
     59 Ar1   c    0.000000 *  0.875009 *  0.250017 *   0.00000    1.000000
     60 Ar1   c    0.000000 *  0.875009 *  0.375009 *   0.00000    1.000000
[...]
    498 Ar1   c    0.875009 *  0.750017 *  0.124991 *   0.00000    1.000000
    499 Ar1   c    0.875009 *  0.750017 *  0.250017 *   0.00000    1.000000
    500 Ar1   c    0.875009 *  0.750017 *  0.375009 *   0.00000    1.000000
    501 Ar1   c    0.875009 *  0.750017 *  0.500000 *   0.00000    1.000000
    502 Ar1   c    0.875009 *  0.750017 *  0.624991 *   0.00000    1.000000
    503 Ar1   c    0.875009 *  0.750017 *  0.750017 *   0.00000    1.000000
    504 Ar1   c    0.875009 *  0.750017 *  0.875009 *   0.00000    1.000000
    505 Ar1   c    0.875009 *  0.875009 *  0.000000 *   0.00000    1.000000
    506 Ar1   c    0.875009 *  0.875009 *  0.124991 *   0.00000    1.000000
    507 Ar1   c    0.875009 *  0.875009 *  0.250017 *   0.00000    1.000000
    508 Ar1   c    0.875009 *  0.875009 *  0.375009 *   0.00000    1.000000
    509 Ar1   c    0.875009 *  0.875009 *  0.500000 *   0.00000    1.000000
    510 Ar1   c    0.875009 *  0.875009 *  0.624991 *   0.00000    1.000000
    511 Ar1   c    0.875009 *  0.875009 *  0.750017 *   0.00000    1.000000
    512 Ar1   c    0.875009 *  0.875009 *  0.875009 *   0.00000    1.000000

  Molecule list generated from bond lengths :

  Total number of molecules =     0

*  General input information                                                   *

  Species output for all configurations :

  Species    Type    Atomic    Atomic    Charge       Radii (Angs)     Library
                     Number     Mass       (e)     Cova   Ionic  VDW   Symbol
    Ar1      Core       18      39.95   0.000000   0.000  0.000  0.000 Ar4+4

  Universal Force Field (UFF) species output:

  Species    Type    Radius    Theta    Distance    Energy     Zeta     Zeff
                     (Ang)   (degrees)   (Ang)       (eV)               (e)
    Ar1      Core    1.0320    90.000     3.8680    0.0080   15.7630   0.2994

  Lattice summation method               =    Ewald          (3-D)
                                         =    Parry          (2-D)
                                         =    Saunders et al (1-D)
  Accuracy factor for lattice sums       =   12.000

  Analytic derivatives to be used

  Time limit = Infinity

  Maximum range for interatomic potentials =    100000.000000 Angstroms

  General interatomic potentials :

Atom  Types   Potential      Parameter       Value         Units   Cutoffs(Ang)
  1     2                                                            Min /  Max
Ar1  c Ar1  c Lennard       Lennard-Jones A  89979.376    eV*Ang^m  3Bond 10.000
                            Lennard-Jones B  53.734620    eV*Ang^n
                            Exponent m        12          None
                            Exponent n         6          None

  Intramolecular potentials :

Atom  Types   Potential      Parameter       Value         Units   Cutoffs(Ang)
  1     2                                                            Min /  Max
Ar1  c Ar1  c Harmonic      Harmonic k2     0.29359911    eV*Ang^-2 0.000 1 Bond
                            Harmonic r0      2.0640000    Ang
                            Harmonic k3      0.0000000    eV*Ang^-3
                            Harmonic k4      0.0000000    eV*Ang^-4
                                                                    single   cyc

  Intramolecular Three-body potentials :

  Atoms       Potential      Parameter       Value         Units   Cutoffs(Ang)
  1 / 2 / 3                                                          Min /  Max
Ar1   core    Linear 3-body Three-body cnst 0.97315276E-02eV        0.000 1 Bond
Ar1   core                  Three-body sign -1.0000000    None      0.000 1 Bond
Ar1   core                                                          0.000

*  Output for configuration   1                                                *

  Components of energy :

  Interatomic potentials     =         -22.05799517 eV
  Three-body potentials      =           0.00000000 eV
  Monopole - monopole (real) =           0.00000000 eV
  Monopole - monopole (recip)=           0.00000000 eV
  Monopole - monopole (total)=           0.00000000 eV
  Total lattice energy       =         -22.05799517 eV
  Total lattice energy       =           -2128.2593 kJ/(mole unit cells)

  MSI Archive (version 3) open for Movie as Ar_rho_0.0207125_N=512_cubic_60_3D.arc

  Electrostatic potential at atomic positions :

 Site  Atomic      Potential                Derivatives (V/Angs)
 No.   Label          (V)                 x           y           z
     1 Ar1   c      0.000000           0.000000    0.000000    0.000000
     2 Ar1   c      0.000000           0.000000    0.000000    0.000000
     3 Ar1   c      0.000000           0.000000    0.000000    0.000000
     4 Ar1   c      0.000000           0.000000    0.000000    0.000000
     5 Ar1   c      0.000000           0.000000    0.000000    0.000000
     6 Ar1   c      0.000000           0.000000    0.000000    0.000000
     7 Ar1   c      0.000000           0.000000    0.000000    0.000000
     8 Ar1   c      0.000000           0.000000    0.000000    0.000000
     9 Ar1   c      0.000000           0.000000    0.000000    0.000000
    10 Ar1   c      0.000000           0.000000    0.000000    0.000000
    11 Ar1   c      0.000000           0.000000    0.000000    0.000000
    12 Ar1   c      0.000000           0.000000    0.000000    0.000000
    13 Ar1   c      0.000000           0.000000    0.000000    0.000000
    14 Ar1   c      0.000000           0.000000    0.000000    0.000000
    15 Ar1   c      0.000000           0.000000    0.000000    0.000000
[...]
       Temperature       (K)  =      77.477484         76.301278
       Pressure         (GPa) =       0.047573          0.046271
  ** Time :            1.40000 ps :
     Properties:                   Instantaneous       Averaged
       Kinetic energy    (eV) =       5.125305          5.045951
       Potential energy  (eV) =     -23.288885        -23.207405
       Total energy      (eV) =     -18.163580        -18.161455
       Temperature       (K)  =      77.595093         76.393693
       Pressure         (GPa) =       0.047792          0.046380
  ** Time :            1.50000 ps :
     Properties:                   Instantaneous       Averaged
       Kinetic energy    (eV) =       5.162755          5.053738
       Potential energy  (eV) =     -23.325911        -23.215306
       Total energy      (eV) =     -18.163156        -18.161568
       Temperature       (K)  =      78.162069         76.511585
       Pressure         (GPa) =       0.047380          0.046447
  ** Time :            1.60000 ps :
     Properties:                   Instantaneous       Averaged
       Kinetic energy    (eV) =       4.970753          5.048551
       Potential energy  (eV) =     -23.132506        -23.210131
       Total energy      (eV) =     -18.161754        -18.161580
       Temperature       (K)  =      75.255225         76.433063
       Pressure         (GPa) =       0.052612          0.046832
  ** Time :            1.70000 ps :
     Properties:                   Instantaneous       Averaged
       Kinetic energy    (eV) =       5.132356          5.053481
       Potential energy  (eV) =     -23.295564        -23.215156
       Total energy      (eV) =     -18.163208        -18.161675
       Temperature       (K)  =      77.701839         76.507696
       Pressure         (GPa) =       0.046371          0.046805
  ** Time :            1.80000 ps :
     Properties:                   Instantaneous       Averaged
       Kinetic energy    (eV) =       5.278070          5.065958
       Potential energy  (eV) =     -23.440526        -23.227677
       Total energy      (eV) =     -18.162455        -18.161719
       Temperature       (K)  =      79.907891         76.696596
       Pressure         (GPa) =       0.040711          0.046466
  ** Time :            1.90000 ps :
     Properties:                   Instantaneous       Averaged
       Kinetic energy    (eV) =       5.231714          5.074682
       Potential energy  (eV) =     -23.393954        -23.236428
       Total energy      (eV) =     -18.162240        -18.161746
       Temperature       (K)  =      79.206073         76.828674
       Pressure         (GPa) =       0.042296          0.046247
  ** Time :            2.00000 ps :
     Properties:                   Instantaneous       Averaged
       Kinetic energy    (eV) =       5.051696          5.073533
       Potential energy  (eV) =     -23.215491        -23.235381
       Total energy      (eV) =     -18.163795        -18.161849
       Temperature       (K)  =      76.480678         76.811274
       Pressure         (GPa) =       0.049036          0.046386
  ** Time :            2.10000 ps :
     Properties:                   Instantaneous       Averaged
       Kinetic energy    (eV) =       5.006219          5.070327
       Potential energy  (eV) =     -23.169155        -23.232228
       Total energy      (eV) =     -18.162936        -18.161900
       Temperature       (K)  =      75.792165         76.762745
       Pressure         (GPa) =       0.051541          0.046632
  ** Time :            2.20000 ps :
     Properties:                   Instantaneous       Averaged
       Kinetic energy    (eV) =       5.116089          5.072407
       Potential energy  (eV) =     -23.280422        -23.234418
       Total energy      (eV) =     -18.164334        -18.162011
       Temperature       (K)  =      77.455557         76.794237
       Pressure         (GPa) =       0.048509          0.046717
  ** Time :            2.30000 ps :
     Properties:                   Instantaneous       Averaged
       Kinetic energy    (eV) =       4.959267          5.067488
       Potential energy  (eV) =     -23.123328        -23.229588
       Total energy      (eV) =     -18.164061        -18.162100
       Temperature       (K)  =      75.081331         76.719762
       Pressure         (GPa) =       0.052407          0.046964
  ** Time :            2.40000 ps :
     Properties:                   Instantaneous       Averaged
       Kinetic energy    (eV) =       5.116015          5.069510
       Potential energy  (eV) =     -23.277510        -23.231585
       Total energy      (eV) =     -18.161495        -18.162075
       Temperature       (K)  =      77.454440         76.750374
       Pressure         (GPa) =       0.047323          0.046979
  ** Time :            2.50000 ps :
     Properties:                   Instantaneous       Averaged
       Kinetic energy    (eV) =       5.276068          5.077772
       Potential energy  (eV) =     -23.440348        -23.239936
       Total energy      (eV) =     -18.164280        -18.162163
       Temperature       (K)  =      79.877584         76.875462
       Pressure         (GPa) =       0.041647          0.046766
  ** Time :            2.60000 ps :
     Properties:                   Instantaneous       Averaged
       Kinetic energy    (eV) =       5.231573          5.083688
       Potential energy  (eV) =     -23.393116        -23.245827
       Total energy      (eV) =     -18.161542        -18.162139
       Temperature       (K)  =      79.203948         76.965020
       Pressure         (GPa) =       0.042911          0.046618
  ** Time :            2.70000 ps :
     Properties:                   Instantaneous       Averaged
       Kinetic energy    (eV) =       5.120761          5.085061
       Potential energy  (eV) =     -23.283862        -23.247236
       Total energy      (eV) =     -18.163101        -18.162175
       Temperature       (K)  =      77.526293         76.985807
       Pressure         (GPa) =       0.046933          0.046629
  ** Time :            2.80000 ps :
     Properties:                   Instantaneous       Averaged
       Kinetic energy    (eV) =       5.180542          5.088471
       Potential energy  (eV) =     -23.342782        -23.250648
       Total energy      (eV) =     -18.162240        -18.162177
       Temperature       (K)  =      78.431357         77.037434
       Pressure         (GPa) =       0.045503          0.046589
  ** Time :            2.90000 ps :
     Properties:                   Instantaneous       Averaged
       Kinetic energy    (eV) =       5.308979          5.096075
       Potential energy  (eV) =     -23.472349        -23.258293
       Total energy      (eV) =     -18.163369        -18.162218
       Temperature       (K)  =      80.375843         77.152552
       Pressure         (GPa) =       0.041799          0.046424
  ** Time :            3.00000 ps :
     Properties:                   Instantaneous       Averaged
       Kinetic energy    (eV) =       5.269265          5.101848
       Potential energy  (eV) =     -23.433062        -23.264119
       Total energy      (eV) =     -18.163797        -18.162271
       Temperature       (K)  =      79.774589         77.239953
       Pressure         (GPa) =       0.042712          0.046300
  ** Time :            3.10000 ps :
     Properties:                   Instantaneous       Averaged
       Kinetic energy    (eV) =       5.220958          5.105690
       Potential energy  (eV) =     -23.384058        -23.267988
       Total energy      (eV) =     -18.163100        -18.162298
       Temperature       (K)  =      79.043232         77.298123
       Pressure         (GPa) =       0.044312          0.046236
  ** Time :            3.20000 ps :
     Properties:                   Instantaneous       Averaged
       Kinetic energy    (eV) =       5.159395          5.107368
       Potential energy  (eV) =     -23.323674        -23.269728
       Total energy      (eV) =     -18.164279        -18.162360
       Temperature       (K)  =      78.111201         77.323532
       Pressure         (GPa) =       0.046622          0.046248
  ** Time :            3.30000 ps :
     Properties:                   Instantaneous       Averaged
       Kinetic energy    (eV) =       5.267297          5.112215
       Potential energy  (eV) =     -23.431038        -23.274616
       Total energy      (eV) =     -18.163742        -18.162401
       Temperature       (K)  =      79.744788         77.396903
       Pressure         (GPa) =       0.043103          0.046153
  ** Time :            3.40000 ps :
     Properties:                   Instantaneous       Averaged
       Kinetic energy    (eV) =       5.302672          5.117816
       Potential energy  (eV) =     -23.465131        -23.280219
       Total energy      (eV) =     -18.162459        -18.162403
       Temperature       (K)  =      80.280351         77.481711
       Pressure         (GPa) =       0.040978          0.046001
  ** Time :            3.50000 ps :
     Properties:                   Instantaneous       Averaged
       Kinetic energy    (eV) =       5.081236          5.116771
       Potential energy  (eV) =     -23.242670        -23.279147
       Total energy      (eV) =     -18.161434        -18.162375
       Temperature       (K)  =      76.927905         77.465888
       Pressure         (GPa) =       0.046964          0.046028
  ** Time :            3.60000 ps :
     Properties:                   Instantaneous       Averaged
       Kinetic energy    (eV) =       5.144394          5.117538
       Potential energy  (eV) =     -23.307765        -23.279942
       Total energy      (eV) =     -18.163371        -18.162403
       Temperature       (K)  =      77.884091         77.477504
       Pressure         (GPa) =       0.046045          0.046029
  ** Time :            3.70000 ps :
     Properties:                   Instantaneous       Averaged
       Kinetic energy    (eV) =       5.036618          5.115351
       Potential energy  (eV) =     -23.199873        -23.277778
       Total energy      (eV) =     -18.163255        -18.162426
       Temperature       (K)  =      76.252398         77.444393
       Pressure         (GPa) =       0.048724          0.046102
  ** Time :            3.80000 ps :
     Properties:                   Instantaneous       Averaged
       Kinetic energy    (eV) =       5.244119          5.118740
       Potential energy  (eV) =     -23.404328        -23.281108
       Total energy      (eV) =     -18.160209        -18.162368
       Temperature       (K)  =      79.393880         77.495696
       Pressure         (GPa) =       0.042839          0.046016
  ** Time :            3.90000 ps :
     Properties:                   Instantaneous       Averaged
       Kinetic energy    (eV) =       4.986801          5.115357
       Potential energy  (eV) =     -23.146138        -23.277647
       Total energy      (eV) =     -18.159337        -18.162290
       Temperature       (K)  =      75.498185         77.444477
       Pressure         (GPa) =       0.049452          0.046104
  ** Time :            4.00000 ps :
     Properties:                   Instantaneous       Averaged
       Kinetic energy    (eV) =       5.258964          5.118947
       Potential energy  (eV) =     -23.419976        -23.281205
       Total energy      (eV) =     -18.161012        -18.162258
       Temperature       (K)  =      79.618628         77.498831
       Pressure         (GPa) =       0.041688          0.045993
  ** Time :            4.10000 ps :
     Properties:                   Instantaneous       Averaged
       Kinetic energy    (eV) =       5.117295          5.118907
       Potential energy  (eV) =     -23.279477        -23.281163
       Total energy      (eV) =     -18.162182        -18.162256
       Temperature       (K)  =      77.473813         77.498221
       Pressure         (GPa) =       0.045050          0.045970
  ** Time :            4.20000 ps :
     Properties:                   Instantaneous       Averaged
       Kinetic energy    (eV) =       5.255596          5.122161
       Potential energy  (eV) =     -23.415317        -23.284357
       Total energy      (eV) =     -18.159721        -18.162196
       Temperature       (K)  =      79.567640         77.547493
       Pressure         (GPa) =       0.040600          0.045843
  ** Time :            4.30000 ps :
     Properties:                   Instantaneous       Averaged
       Kinetic energy    (eV) =       5.220209          5.124442
       Potential energy  (eV) =     -23.379124        -23.286561
       Total energy      (eV) =     -18.158915        -18.162120
       Temperature       (K)  =      79.031895         77.582014
       Pressure         (GPa) =       0.041525          0.045742
  ** Time :            4.40000 ps :
     Properties:                   Instantaneous       Averaged
       Kinetic energy    (eV) =       5.041847          5.122564
       Potential energy  (eV) =     -23.202046        -23.284640
       Total energy      (eV) =     -18.160199        -18.162076
       Temperature       (K)  =      76.331570         77.553595
       Pressure         (GPa) =       0.046868          0.045768
  ** Time :            4.50000 ps :
     Properties:                   Instantaneous       Averaged
       Kinetic energy    (eV) =       5.173910          5.123705
       Potential energy  (eV) =     -23.334544        -23.285749
       Total energy      (eV) =     -18.160634        -18.162044
       Temperature       (K)  =      78.330949         77.570869
       Pressure         (GPa) =       0.042371          0.045692
  ** Time :            4.60000 ps :
     Properties:                   Instantaneous       Averaged
       Kinetic energy    (eV) =       5.158598          5.124464
       Potential energy  (eV) =     -23.320034        -23.286495
       Total energy      (eV) =     -18.161436        -18.162031
       Temperature       (K)  =      78.099133         77.582353
       Pressure         (GPa) =       0.042742          0.045628
  ** Time :            4.70000 ps :
     Properties:                   Instantaneous       Averaged
       Kinetic energy    (eV) =       5.204733          5.126172
       Potential energy  (eV) =     -23.365148        -23.288168
       Total energy      (eV) =     -18.160415        -18.161996
       Temperature       (K)  =      78.797599         77.608210
       Pressure         (GPa) =       0.042739          0.045567
  ** Time :            4.80000 ps :
     Properties:                   Instantaneous       Averaged
       Kinetic energy    (eV) =       5.356808          5.130977
       Potential energy  (eV) =     -23.516693        -23.292929
       Total energy      (eV) =     -18.159885        -18.161952
       Temperature       (K)  =      81.099949         77.680954
       Pressure         (GPa) =       0.039268          0.045435
  ** Time :            4.90000 ps :
     Properties:                   Instantaneous       Averaged
       Kinetic energy    (eV) =       5.144341          5.131249
       Potential energy  (eV) =     -23.303355        -23.293142
       Total energy      (eV) =     -18.159014        -18.161892
       Temperature       (K)  =      77.883278         77.685083
       Pressure         (GPa) =       0.046190          0.045451
  ** Time :            5.00000 ps :
     Properties:                   Instantaneous       Averaged
       Kinetic energy    (eV) =       5.437941          5.137383
       Potential energy  (eV) =     -23.597076        -23.299221
       Total energy      (eV) =     -18.159135        -18.161837
       Temperature       (K)  =      82.328275         77.777947
       Pressure         (GPa) =       0.039464          0.045331

  Timing analysis for GULP :

  Task / Subroutine                                          Time (Seconds)
  Calculation of real space energy and derivatives              207.1872
  Calculation of three-body energy and derivatives                0.0225
  Calculation of molecules and connectivity                       0.0002
  Calculation of matrix inversion                                 0.0069
  Molecular dynamics - update of geometry                         3.8933
  Molecular dynamics - predictor                                  0.0273
  Molecular dynamics - corrector                                  0.0304
  Molecular dynamics - velocity correction                        0.0241
  Global summation overhead                                       0.0073

  GULP trajectory file written as Ar_rho_0.0207125_N=512_cubic_60.trg

  Job Finished at 16:26.40 29th July       2022